Ba72 Ta72 N72 O144
1.0
16.497668 0.000000 0.000000
-0.000000 17.214565 0.000000
0.000000 0.000000 17.214565
Ba Ta N O
72 72 72 144
direct
0.000000 0.250000 0.250000 Ba
0.000000 0.250000 0.583333 Ba
0.000000 0.250000 0.916667 Ba
0.000000 0.583333 0.250000 Ba
0.000000 0.583333 0.583333 Ba
0.000000 0.583333 0.916667 Ba
0.000000 0.916667 0.250000 Ba
0.000000 0.916667 0.583333 Ba
0.000000 0.916667 0.916667 Ba
0.250000 0.250000 0.250000 Ba
0.250000 0.250000 0.583333 Ba
0.250000 0.250000 0.916667 Ba
0.250000 0.583333 0.250000 Ba
0.250000 0.583333 0.583333 Ba
0.250000 0.583333 0.916667 Ba
0.250000 0.916667 0.250000 Ba
0.250000 0.916667 0.583333 Ba
0.250000 0.916667 0.916667 Ba
0.500000 0.250000 0.250000 Ba
0.500000 0.250000 0.583333 Ba
0.500000 0.250000 0.916667 Ba
0.500000 0.583333 0.250000 Ba
0.500000 0.583333 0.583333 Ba
0.500000 0.583333 0.916667 Ba
0.500000 0.916667 0.250000 Ba
0.500000 0.916667 0.583333 Ba
0.500000 0.916667 0.916667 Ba
0.750000 0.250000 0.250000 Ba
0.750000 0.250000 0.583333 Ba
0.750000 0.250000 0.916667 Ba
0.750000 0.583333 0.250000 Ba
0.750000 0.583333 0.583333 Ba
0.750000 0.583333 0.916667 Ba
0.750000 0.916667 0.250000 Ba
0.750000 0.916667 0.583333 Ba
0.750000 0.916667 0.916667 Ba
0.000000 0.083333 0.083333 Ba
0.000000 0.083333 0.416667 Ba
0.000000 0.083333 0.750000 Ba
0.000000 0.416667 0.083333 Ba
0.000000 0.416667 0.416667 Ba
0.000000 0.416667 0.750000 Ba
0.000000 0.750000 0.083333 Ba
0.000000 0.750000 0.416667 Ba
0.000000 0.750000 0.750000 Ba
0.250000 0.083333 0.083333 Ba
0.250000 0.083333 0.416667 Ba
0.250000 0.083333 0.750000 Ba
0.250000 0.416667 0.083333 Ba
0.250000 0.416667 0.416667 Ba
0.250000 0.416667 0.750000 Ba
0.250000 0.750000 0.083333 Ba
0.250000 0.750000 0.416667 Ba
0.250000 0.750000 0.750000 Ba
0.500000 0.083333 0.083333 Ba
0.500000 0.083333 0.416667 Ba
0.500000 0.083333 0.750000 Ba
0.500000 0.416667 0.083333 Ba
0.500000 0.416667 0.416667 Ba
0.500000 0.416667 0.750000 Ba
0.500000 0.750000 0.083333 Ba
0.500000 0.750000 0.416667 Ba
0.500000 0.750000 0.750000 Ba
0.750000 0.083333 0.083333 Ba
0.750000 0.083333 0.416667 Ba
0.750000 0.083333 0.750000 Ba
0.750000 0.416667 0.083333 Ba
0.750000 0.416667 0.416667 Ba
0.750000 0.416667 0.750000 Ba
0.750000 0.750000 0.083333 Ba
0.750000 0.750000 0.416667 Ba
0.750000 0.750000 0.750000 Ba
0.125000 0.250000 0.083333 Ta
0.125000 0.250000 0.416667 Ta
0.125000 0.250000 0.750000 Ta
0.125000 0.583333 0.083333 Ta
0.125000 0.583333 0.416667 Ta
0.125000 0.583333 0.750000 Ta
0.125000 0.916667 0.083333 Ta
0.125000 0.916667 0.416667 Ta
0.125000 0.916667 0.750000 Ta
0.375000 0.250000 0.083333 Ta
0.375000 0.250000 0.416667 Ta
0.375000 0.250000 0.750000 Ta
0.375000 0.583333 0.083333 Ta
0.375000 0.583333 0.416667 Ta
0.375000 0.583333 0.750000 Ta
0.375000 0.916667 0.083333 Ta
0.375000 0.916667 0.416667 Ta
0.375000 0.916667 0.750000 Ta
0.625000 0.250000 0.083333 Ta
0.625000 0.250000 0.416667 Ta
0.625000 0.250000 0.750000 Ta
0.625000 0.583333 0.083333 Ta
0.625000 0.583333 0.416667 Ta
0.625000 0.583333 0.750000 Ta
0.625000 0.916667 0.083333 Ta
0.625000 0.916667 0.416667 Ta
0.625000 0.916667 0.750000 Ta
0.875000 0.250000 0.083333 Ta
0.875000 0.250000 0.416667 Ta
0.875000 0.250000 0.750000 Ta
0.875000 0.583333 0.083333 Ta
0.875000 0.583333 0.416667 Ta
0.875000 0.583333 0.750000 Ta
0.875000 0.916667 0.083333 Ta
0.875000 0.916667 0.416667 Ta
0.875000 0.916667 0.750000 Ta
0.125000 0.083333 0.250000 Ta
0.125000 0.083333 0.583333 Ta
0.125000 0.083333 0.916667 Ta
0.125000 0.416667 0.250000 Ta
0.125000 0.416667 0.583333 Ta
0.125000 0.416667 0.916667 Ta
0.125000 0.750000 0.250000 Ta
0.125000 0.750000 0.583333 Ta
0.125000 0.750000 0.916667 Ta
0.375000 0.083333 0.250000 Ta
0.375000 0.083333 0.583333 Ta
0.375000 0.083333 0.916667 Ta
0.375000 0.416667 0.250000 Ta
0.375000 0.416667 0.583333 Ta
0.375000 0.416667 0.916667 Ta
0.375000 0.750000 0.250000 Ta
0.375000 0.750000 0.583333 Ta
0.375000 0.750000 0.916667 Ta
0.625000 0.083333 0.250000 Ta
0.625000 0.083333 0.583333 Ta
0.625000 0.083333 0.916667 Ta
0.625000 0.416667 0.250000 Ta
0.625000 0.416667 0.583333 Ta
0.625000 0.416667 0.916667 Ta
0.625000 0.750000 0.250000 Ta
0.625000 0.750000 0.583333 Ta
0.625000 0.750000 0.916667 Ta
0.875000 0.083333 0.250000 Ta
0.875000 0.083333 0.583333 Ta
0.875000 0.083333 0.916667 Ta
0.875000 0.416667 0.250000 Ta
0.875000 0.416667 0.583333 Ta
0.875000 0.416667 0.916667 Ta
0.875000 0.750000 0.250000 Ta
0.875000 0.750000 0.583333 Ta
0.875000 0.750000 0.916667 Ta
0.125000 0.166667 0.000000 N
0.125000 0.166667 0.333333 N
0.125000 0.166667 0.666667 N
0.125000 0.500000 0.000000 N
0.125000 0.500000 0.333333 N
0.125000 0.500000 0.666667 N
0.125000 0.833333 0.000000 N
0.125000 0.833333 0.333333 N
0.125000 0.833333 0.666667 N
0.375000 0.166667 0.000000 N
0.375000 0.166667 0.333333 N
0.375000 0.166667 0.666667 N
0.375000 0.500000 0.000000 N
0.375000 0.500000 0.333333 N
0.375000 0.500000 0.666667 N
0.375000 0.833333 1.000000 N
0.375000 0.833333 0.333333 N
0.375000 0.833333 0.666667 N
0.625000 0.166667 0.000000 N
0.625000 0.166667 0.333333 N
0.625000 0.166667 0.666667 N
0.625000 0.500000 0.000000 N
0.625000 0.500000 0.333333 N
0.625000 0.500000 0.666667 N
0.625000 0.833333 0.000000 N
0.625000 0.833333 0.333333 N
0.625000 0.833333 0.666667 N
0.875000 0.166667 1.000000 N
0.875000 0.166667 0.333333 N
0.875000 0.166667 0.666667 N
0.875000 0.500000 0.000000 N
0.875000 0.500000 0.333333 N
0.875000 0.500000 0.666667 N
0.875000 0.833333 0.000000 N
0.875000 0.833333 0.333333 N
0.875000 0.833333 0.666667 N
0.125000 0.000000 0.000000 N
0.125000 0.000000 0.333333 N
0.125000 0.000000 0.666667 N
0.125000 0.333333 0.000000 N
0.125000 0.333333 0.333333 N
0.125000 0.333333 0.666667 N
0.125000 0.666667 0.000000 N
0.125000 0.666667 0.333333 N
0.125000 0.666667 0.666667 N
0.375000 0.000000 0.000000 N
0.375000 0.000000 0.333333 N
0.375000 0.000000 0.666667 N
0.375000 0.333333 0.000000 N
0.375000 0.333333 0.333333 N
0.375000 0.333333 0.666667 N
0.375000 0.666667 0.000000 N
0.375000 0.666667 0.333333 N
0.375000 0.666667 0.666667 N
0.625000 0.000000 0.000000 N
0.625000 0.000000 0.333333 N
0.625000 0.000000 0.666667 N
0.625000 0.333333 0.000000 N
0.625000 0.333333 0.333333 N
0.625000 0.333333 0.666667 N
0.625000 0.666667 0.000000 N
0.625000 0.666667 0.333333 N
0.625000 0.666667 0.666667 N
0.875000 0.000000 0.000000 N
0.875000 0.000000 0.333333 N
0.875000 0.000000 0.666667 N
0.875000 0.333333 1.000000 N
0.875000 0.333333 0.333333 N
0.875000 0.333333 0.666667 N
0.875000 0.666667 0.000000 N
0.875000 0.666667 0.333333 N
0.875000 0.666667 0.666667 N
0.125000 0.000000 0.166667 O
0.125000 0.000000 0.500000 O
0.125000 0.000000 0.833333 O
0.125000 0.333333 0.166667 O
0.125000 0.333333 0.500000 O
0.125000 0.333333 0.833333 O
0.125000 0.666667 0.166667 O
0.125000 0.666667 0.500000 O
0.125000 0.666667 0.833333 O
0.375000 0.000000 0.166667 O
0.375000 0.000000 0.500000 O
0.375000 0.000000 0.833333 O
0.375000 0.333333 0.166667 O
0.375000 0.333333 0.500000 O
0.375000 0.333333 0.833333 O
0.375000 0.666667 0.166667 O
0.375000 0.666667 0.500000 O
0.375000 0.666667 0.833333 O
0.625000 0.000000 0.166667 O
0.625000 0.000000 0.500000 O
0.625000 0.000000 0.833333 O
0.625000 0.333333 0.166667 O
0.625000 0.333333 0.500000 O
0.625000 0.333333 0.833333 O
0.625000 0.666667 0.166667 O
0.625000 0.666667 0.500000 O
0.625000 0.666667 0.833333 O
0.875000 0.000000 0.166667 O
0.875000 0.000000 0.500000 O
0.875000 0.000000 0.833333 O
0.875000 0.333333 0.166667 O
0.875000 0.333333 0.500000 O
0.875000 0.333333 0.833333 O
0.875000 0.666667 0.166667 O
0.875000 0.666667 0.500000 O
0.875000 0.666667 0.833333 O
0.125000 0.166667 0.166667 O
0.125000 0.166667 0.500000 O
0.125000 0.166667 0.833333 O
0.125000 0.500000 0.166667 O
0.125000 0.500000 0.500000 O
0.125000 0.500000 0.833333 O
0.125000 0.833333 0.166667 O
0.125000 0.833333 0.500000 O
0.125000 0.833333 0.833333 O
0.375000 0.166667 0.166667 O
0.375000 0.166667 0.500000 O
0.375000 0.166667 0.833333 O
0.375000 0.500000 0.166667 O
0.375000 0.500000 0.500000 O
0.375000 0.500000 0.833333 O
0.375000 0.833333 0.166667 O
0.375000 0.833333 0.500000 O
0.375000 0.833333 0.833333 O
0.625000 0.166667 0.166667 O
0.625000 0.166667 0.500000 O
0.625000 0.166667 0.833333 O
0.625000 0.500000 0.166667 O
0.625000 0.500000 0.500000 O
0.625000 0.500000 0.833333 O
0.625000 0.833333 0.166667 O
0.625000 0.833333 0.500000 O
0.625000 0.833333 0.833333 O
0.875000 0.166667 0.166667 O
0.875000 0.166667 0.500000 O
0.875000 0.166667 0.833333 O
0.875000 0.500000 0.166667 O
0.875000 0.500000 0.500000 O
0.875000 0.500000 0.833333 O
0.875000 0.833333 0.166667 O
0.875000 0.833333 0.500000 O
0.875000 0.833333 0.833333 O
0.000000 0.250000 0.083333 O
0.000000 0.250000 0.416667 O
0.000000 0.250000 0.750000 O
0.000000 0.583333 0.083333 O
0.000000 0.583333 0.416667 O
0.000000 0.583333 0.750000 O
0.000000 0.916667 0.083333 O
0.000000 0.916667 0.416667 O
0.000000 0.916667 0.750000 O
0.250000 0.250000 0.083333 O
0.250000 0.250000 0.416667 O
0.250000 0.250000 0.750000 O
0.250000 0.583333 0.083333 O
0.250000 0.583333 0.416667 O
0.250000 0.583333 0.750000 O
0.250000 0.916667 0.083333 O
0.250000 0.916667 0.416667 O
0.250000 0.916667 0.750000 O
0.500000 0.250000 0.083333 O
0.500000 0.250000 0.416667 O
0.500000 0.250000 0.750000 O
0.500000 0.583333 0.083333 O
0.500000 0.583333 0.416667 O
0.500000 0.583333 0.750000 O
0.500000 0.916667 0.083333 O
0.500000 0.916667 0.416667 O
0.500000 0.916667 0.750000 O
0.750000 0.250000 0.083333 O
0.750000 0.250000 0.416667 O
0.750000 0.250000 0.750000 O
0.750000 0.583333 0.083333 O
0.750000 0.583333 0.416667 O
0.750000 0.583333 0.750000 O
0.750000 0.916667 0.083333 O
0.750000 0.916667 0.416667 O
0.750000 0.916667 0.750000 O
0.000000 0.083333 0.250000 O
0.000000 0.083333 0.583333 O
0.000000 0.083333 0.916667 O
0.000000 0.416667 0.250000 O
0.000000 0.416667 0.583333 O
0.000000 0.416667 0.916667 O
0.000000 0.750000 0.250000 O
0.000000 0.750000 0.583333 O
0.000000 0.750000 0.916667 O
0.250000 0.083333 0.250000 O
0.250000 0.083333 0.583333 O
0.250000 0.083333 0.916667 O
0.250000 0.416667 0.250000 O
0.250000 0.416667 0.583333 O
0.250000 0.416667 0.916667 O
0.250000 0.750000 0.250000 O
0.250000 0.750000 0.583333 O
0.250000 0.750000 0.916667 O
0.500000 0.083333 0.250000 O
0.500000 0.083333 0.583333 O
0.500000 0.083333 0.916667 O
0.500000 0.416667 0.250000 O
0.500000 0.416667 0.583333 O
0.500000 0.416667 0.916667 O
0.500000 0.750000 0.250000 O
0.500000 0.750000 0.583333 O
0.500000 0.750000 0.916667 O
0.750000 0.083333 0.250000 O
0.750000 0.083333 0.583333 O
0.750000 0.083333 0.916667 O
0.750000 0.416667 0.250000 O
0.750000 0.416667 0.583333 O
0.750000 0.416667 0.916667 O
0.750000 0.750000 0.250000 O
0.750000 0.750000 0.583333 O
0.750000 0.750000 0.916667 O
