Sr2 Ta2 N2 O4
1.0
4.049561 4.049561 0.000000
-4.049561 4.049561 0.000000
0.000000 4.049561 4.107669
Sr Ta N O
2 2 2 4
direct
0.500000 1.000000 0.000000 Sr
0.000000 0.500000 0.000000 Sr
0.250000 0.250000 0.500000 Ta
0.750000 0.750000 0.500000 Ta
0.000000 0.000000 0.000000 N
0.500000 0.500000 0.500000 N
0.500000 0.500000 0.000000 O
0.000000 1.000000 0.500000 O
0.000000 0.500000 0.500000 O
0.500000 0.000000 0.500000 O
