La1 Ta1 N2 O1
1.0
3.989485 0.000000 0.000000
0.000000 4.124417 0.000000
0.000000 0.000000 4.124417
La Ta N O
1 1 2 1
direct
0.000000 0.000000 0.000000 La
0.500000 0.500000 0.500000 Ta
0.500000 0.000000 0.500000 N
0.000000 0.500000 0.500000 N
0.500000 0.500000 0.000000 O
