Sr64 Ta64 N64 O128
1.0
16.198246 0.000000 0.000000
-0.000000 16.198246 0.000000
0.000000 0.000000 16.430677
Sr Ta N O
64 64 64 128
direct
0.000000 0.000000 0.375000 Sr
0.000000 0.000000 0.875000 Sr
0.000000 0.250000 0.375000 Sr
0.000000 0.250000 0.875000 Sr
0.000000 0.500000 0.375000 Sr
0.000000 0.500000 0.875000 Sr
1.000000 0.750000 0.375000 Sr
1.000000 0.750000 0.875000 Sr
0.250000 0.000000 0.375000 Sr
0.250000 0.000000 0.875000 Sr
0.250000 0.250000 0.375000 Sr
0.250000 0.250000 0.875000 Sr
0.250000 0.500000 0.375000 Sr
0.250000 0.500000 0.875000 Sr
0.250000 0.750000 0.375000 Sr
0.250000 0.750000 0.875000 Sr
0.500000 0.000000 0.375000 Sr
0.500000 0.000000 0.875000 Sr
0.500000 0.250000 0.375000 Sr
0.500000 0.250000 0.875000 Sr
0.500000 0.500000 0.375000 Sr
0.500000 0.500000 0.875000 Sr
0.500000 0.750000 0.375000 Sr
0.500000 0.750000 0.875000 Sr
0.750000 0.000000 0.375000 Sr
0.750000 0.000000 0.875000 Sr
0.750000 0.250000 0.375000 Sr
0.750000 0.250000 0.875000 Sr
0.750000 0.500000 0.375000 Sr
0.750000 0.500000 0.875000 Sr
0.750000 0.750000 0.375000 Sr
0.750000 0.750000 0.875000 Sr
0.000000 0.000000 0.125000 Sr
0.000000 0.000000 0.625000 Sr
0.000000 0.250000 0.125000 Sr
0.000000 0.250000 0.625000 Sr
0.000000 0.500000 0.125000 Sr
0.000000 0.500000 0.625000 Sr
1.000000 0.750000 0.125000 Sr
1.000000 0.750000 0.625000 Sr
0.250000 0.000000 0.125000 Sr
0.250000 0.000000 0.625000 Sr
0.250000 0.250000 0.125000 Sr
0.250000 0.250000 0.625000 Sr
0.250000 0.500000 0.125000 Sr
0.250000 0.500000 0.625000 Sr
0.250000 0.750000 0.125000 Sr
0.250000 0.750000 0.625000 Sr
0.500000 0.000000 0.125000 Sr
0.500000 0.000000 0.625000 Sr
0.500000 0.250000 0.125000 Sr
0.500000 0.250000 0.625000 Sr
0.500000 0.500000 0.125000 Sr
0.500000 0.500000 0.625000 Sr
0.500000 0.750000 0.125000 Sr
0.500000 0.750000 0.625000 Sr
0.750000 0.000000 0.125000 Sr
0.750000 0.000000 0.625000 Sr
0.750000 0.250000 0.125000 Sr
0.750000 0.250000 0.625000 Sr
0.750000 0.500000 0.125000 Sr
0.750000 0.500000 0.625000 Sr
0.750000 0.750000 0.125000 Sr
0.750000 0.750000 0.625000 Sr
0.125000 0.125000 0.000000 Ta
0.125000 0.125000 0.500000 Ta
0.125000 0.375000 0.000000 Ta
0.125000 0.375000 0.500000 Ta
0.125000 0.625000 1.000000 Ta
0.125000 0.625000 0.500000 Ta
0.125000 0.875000 0.000000 Ta
0.125000 0.875000 0.500000 Ta
0.375000 0.125000 0.000000 Ta
0.375000 0.125000 0.500000 Ta
0.375000 0.375000 1.000000 Ta
0.375000 0.375000 0.500000 Ta
0.375000 0.625000 1.000000 Ta
0.375000 0.625000 0.500000 Ta
0.375000 0.875000 1.000000 Ta
0.375000 0.875000 0.500000 Ta
0.625000 0.125000 1.000000 Ta
0.625000 0.125000 0.500000 Ta
0.625000 0.375000 0.000000 Ta
0.625000 0.375000 0.500000 Ta
0.625000 0.625000 1.000000 Ta
0.625000 0.625000 0.500000 Ta
0.625000 0.875000 1.000000 Ta
0.625000 0.875000 0.500000 Ta
0.875000 0.125000 0.000000 Ta
0.875000 0.125000 0.500000 Ta
0.875000 0.375000 1.000000 Ta
0.875000 0.375000 0.500000 Ta
0.875000 0.625000 1.000000 Ta
0.875000 0.625000 0.500000 Ta
0.875000 0.875000 0.000000 Ta
0.875000 0.875000 0.500000 Ta
0.125000 0.125000 0.250000 Ta
0.125000 0.125000 0.750000 Ta
0.125000 0.375000 0.250000 Ta
0.125000 0.375000 0.750000 Ta
0.125000 0.625000 0.250000 Ta
0.125000 0.625000 0.750000 Ta
0.125000 0.875000 0.250000 Ta
0.125000 0.875000 0.750000 Ta
0.375000 0.125000 0.250000 Ta
0.375000 0.125000 0.750000 Ta
0.375000 0.375000 0.250000 Ta
0.375000 0.375000 0.750000 Ta
0.375000 0.625000 0.250000 Ta
0.375000 0.625000 0.750000 Ta
0.375000 0.875000 0.250000 Ta
0.375000 0.875000 0.750000 Ta
0.625000 0.125000 0.250000 Ta
0.625000 0.125000 0.750000 Ta
0.625000 0.375000 0.250000 Ta
0.625000 0.375000 0.750000 Ta
0.625000 0.625000 0.250000 Ta
0.625000 0.625000 0.750000 Ta
0.625000 0.875000 0.250000 Ta
0.625000 0.875000 0.750000 Ta
0.875000 0.125000 0.250000 Ta
0.875000 0.125000 0.750000 Ta
0.875000 0.375000 0.250000 Ta
0.875000 0.375000 0.750000 Ta
0.875000 0.625000 0.250000 Ta
0.875000 0.625000 0.750000 Ta
0.875000 0.875000 0.250000 Ta
0.875000 0.875000 0.750000 Ta
0.125000 0.000000 0.000000 N
0.125000 0.000000 0.500000 N
0.125000 0.250000 0.000000 N
0.125000 0.250000 0.500000 N
0.125000 0.500000 1.000000 N
0.125000 0.500000 0.500000 N
0.125000 0.750000 0.000000 N
0.125000 0.750000 0.500000 N
0.375000 0.000000 1.000000 N
0.375000 0.000000 0.500000 N
0.375000 0.250000 1.000000 N
0.375000 0.250000 0.500000 N
0.375000 0.500000 0.000000 N
0.375000 0.500000 0.500000 N
0.375000 0.750000 1.000000 N
0.375000 0.750000 0.500000 N
0.625000 0.000000 1.000000 N
0.625000 0.000000 0.500000 N
0.625000 0.250000 1.000000 N
0.625000 0.250000 0.500000 N
0.625000 0.500000 1.000000 N
0.625000 0.500000 0.500000 N
0.625000 0.750000 1.000000 N
0.625000 0.750000 0.500000 N
0.875000 0.000000 0.000000 N
0.875000 0.000000 0.500000 N
0.875000 0.250000 1.000000 N
0.875000 0.250000 0.500000 N
0.875000 0.500000 1.000000 N
0.875000 0.500000 0.500000 N
0.875000 0.750000 1.000000 N
0.875000 0.750000 0.500000 N
0.000000 0.125000 0.250000 N
0.000000 0.125000 0.750000 N
1.000000 0.375000 0.250000 N
1.000000 0.375000 0.750000 N
0.000000 0.625000 0.250000 N
0.000000 0.625000 0.750000 N
1.000000 0.875000 0.250000 N
1.000000 0.875000 0.750000 N
0.250000 0.125000 0.250000 N
0.250000 0.125000 0.750000 N
0.250000 0.375000 0.250000 N
0.250000 0.375000 0.750000 N
0.250000 0.625000 0.250000 N
0.250000 0.625000 0.750000 N
0.250000 0.875000 0.250000 N
0.250000 0.875000 0.750000 N
0.500000 0.125000 0.250000 N
0.500000 0.125000 0.750000 N
0.500000 0.375000 0.250000 N
0.500000 0.375000 0.750000 N
0.500000 0.625000 0.250000 N
0.500000 0.625000 0.750000 N
0.500000 0.875000 0.250000 N
0.500000 0.875000 0.750000 N
0.750000 0.125000 0.250000 N
0.750000 0.125000 0.750000 N
0.750000 0.375000 0.250000 N
0.750000 0.375000 0.750000 N
0.750000 0.625000 0.250000 N
0.750000 0.625000 0.750000 N
0.750000 0.875000 0.250000 N
0.750000 0.875000 0.750000 N
0.125000 0.125000 0.375000 O
0.125000 0.125000 0.875000 O
0.125000 0.375000 0.375000 O
0.125000 0.375000 0.875000 O
0.125000 0.625000 0.375000 O
0.125000 0.625000 0.875000 O
0.125000 0.875000 0.375000 O
0.125000 0.875000 0.875000 O
0.375000 0.125000 0.375000 O
0.375000 0.125000 0.875000 O
0.375000 0.375000 0.375000 O
0.375000 0.375000 0.875000 O
0.375000 0.625000 0.375000 O
0.375000 0.625000 0.875000 O
0.375000 0.875000 0.375000 O
0.375000 0.875000 0.875000 O
0.625000 0.125000 0.375000 O
0.625000 0.125000 0.875000 O
0.625000 0.375000 0.375000 O
0.625000 0.375000 0.875000 O
0.625000 0.625000 0.375000 O
0.625000 0.625000 0.875000 O
0.625000 0.875000 0.375000 O
0.625000 0.875000 0.875000 O
0.875000 0.125000 0.375000 O
0.875000 0.125000 0.875000 O
0.875000 0.375000 0.375000 O
0.875000 0.375000 0.875000 O
0.875000 0.625000 0.375000 O
0.875000 0.625000 0.875000 O
0.875000 0.875000 0.375000 O
0.875000 0.875000 0.875000 O
0.125000 0.125000 0.125000 O
0.125000 0.125000 0.625000 O
0.125000 0.375000 0.125000 O
0.125000 0.375000 0.625000 O
0.125000 0.625000 0.125000 O
0.125000 0.625000 0.625000 O
0.125000 0.875000 0.125000 O
0.125000 0.875000 0.625000 O
0.375000 0.125000 0.125000 O
0.375000 0.125000 0.625000 O
0.375000 0.375000 0.125000 O
0.375000 0.375000 0.625000 O
0.375000 0.625000 0.125000 O
0.375000 0.625000 0.625000 O
0.375000 0.875000 0.125000 O
0.375000 0.875000 0.625000 O
0.625000 0.125000 0.125000 O
0.625000 0.125000 0.625000 O
0.625000 0.375000 0.125000 O
0.625000 0.375000 0.625000 O
0.625000 0.625000 0.125000 O
0.625000 0.625000 0.625000 O
0.625000 0.875000 0.125000 O
0.625000 0.875000 0.625000 O
0.875000 0.125000 0.125000 O
0.875000 0.125000 0.625000 O
0.875000 0.375000 0.125000 O
0.875000 0.375000 0.625000 O
0.875000 0.625000 0.125000 O
0.875000 0.625000 0.625000 O
0.875000 0.875000 0.125000 O
0.875000 0.875000 0.625000 O
0.125000 0.000000 0.250000 O
0.125000 0.000000 0.750000 O
0.125000 0.250000 0.250000 O
0.125000 0.250000 0.750000 O
0.125000 0.500000 0.250000 O
0.125000 0.500000 0.750000 O
0.125000 0.750000 0.250000 O
0.125000 0.750000 0.750000 O
0.375000 0.000000 0.250000 O
0.375000 0.000000 0.750000 O
0.375000 0.250000 0.250000 O
0.375000 0.250000 0.750000 O
0.375000 0.500000 0.250000 O
0.375000 0.500000 0.750000 O
0.375000 0.750000 0.250000 O
0.375000 0.750000 0.750000 O
0.625000 0.000000 0.250000 O
0.625000 0.000000 0.750000 O
0.625000 0.250000 0.250000 O
0.625000 0.250000 0.750000 O
0.625000 0.500000 0.250000 O
0.625000 0.500000 0.750000 O
0.625000 0.750000 0.250000 O
0.625000 0.750000 0.750000 O
0.875000 0.000000 0.250000 O
0.875000 0.000000 0.750000 O
0.875000 0.250000 0.250000 O
0.875000 0.250000 0.750000 O
0.875000 0.500000 0.250000 O
0.875000 0.500000 0.750000 O
0.875000 0.750000 0.250000 O
0.875000 0.750000 0.750000 O
0.000000 0.125000 0.000000 O
0.000000 0.125000 0.500000 O
1.000000 0.375000 0.000000 O
1.000000 0.375000 0.500000 O
0.000000 0.625000 1.000000 O
0.000000 0.625000 0.500000 O
1.000000 0.875000 0.000000 O
1.000000 0.875000 0.500000 O
0.250000 0.125000 1.000000 O
0.250000 0.125000 0.500000 O
0.250000 0.375000 1.000000 O
0.250000 0.375000 0.500000 O
0.250000 0.625000 0.000000 O
0.250000 0.625000 0.500000 O
0.250000 0.875000 1.000000 O
0.250000 0.875000 0.500000 O
0.500000 0.125000 1.000000 O
0.500000 0.125000 0.500000 O
0.500000 0.375000 0.000000 O
0.500000 0.375000 0.500000 O
0.500000 0.625000 1.000000 O
0.500000 0.625000 0.500000 O
0.500000 0.875000 1.000000 O
0.500000 0.875000 0.500000 O
0.750000 0.125000 0.000000 O
0.750000 0.125000 0.500000 O
0.750000 0.375000 1.000000 O
0.750000 0.375000 0.500000 O
0.750000 0.625000 1.000000 O
0.750000 0.625000 0.500000 O
0.750000 0.875000 1.000000 O
0.750000 0.875000 0.500000 O
