Ba150 Ta150 N150 O300
1.0
20.622085 0.000000 0.000000
-0.000000 20.622085 0.000000
0.000000 0.000000 23.936910
Ba Ta N O
150 150 150 300
direct
0.000000 0.000000 0.000000 Ba
0.000000 0.000000 0.333333 Ba
0.000000 0.000000 0.666667 Ba
1.000000 0.200000 0.000000 Ba
1.000000 0.200000 0.333333 Ba
1.000000 0.200000 0.666667 Ba
1.000000 0.400000 0.000000 Ba
1.000000 0.400000 0.333333 Ba
1.000000 0.400000 0.666667 Ba
1.000000 0.600000 1.000000 Ba
1.000000 0.600000 0.333333 Ba
1.000000 0.600000 0.666667 Ba
1.000000 0.800000 0.000000 Ba
1.000000 0.800000 0.333333 Ba
1.000000 0.800000 0.666667 Ba
0.200000 0.000000 0.000000 Ba
0.200000 0.000000 0.333333 Ba
0.200000 0.000000 0.666667 Ba
0.200000 0.200000 0.000000 Ba
0.200000 0.200000 0.333333 Ba
0.200000 0.200000 0.666667 Ba
0.200000 0.400000 0.000000 Ba
0.200000 0.400000 0.333333 Ba
0.200000 0.400000 0.666667 Ba
0.200000 0.600000 0.000000 Ba
0.200000 0.600000 0.333333 Ba
0.200000 0.600000 0.666667 Ba
0.200000 0.800000 0.000000 Ba
0.200000 0.800000 0.333333 Ba
0.200000 0.800000 0.666667 Ba
0.400000 0.000000 0.000000 Ba
0.400000 0.000000 0.333333 Ba
0.400000 0.000000 0.666667 Ba
0.400000 0.200000 1.000000 Ba
0.400000 0.200000 0.333333 Ba
0.400000 0.200000 0.666667 Ba
0.400000 0.400000 0.000000 Ba
0.400000 0.400000 0.333333 Ba
0.400000 0.400000 0.666667 Ba
0.400000 0.600000 0.000000 Ba
0.400000 0.600000 0.333333 Ba
0.400000 0.600000 0.666667 Ba
0.400000 0.800000 0.000000 Ba
0.400000 0.800000 0.333333 Ba
0.400000 0.800000 0.666667 Ba
0.600000 0.000000 1.000000 Ba
0.600000 0.000000 0.333333 Ba
0.600000 0.000000 0.666667 Ba
0.600000 0.200000 0.000000 Ba
0.600000 0.200000 0.333333 Ba
0.600000 0.200000 0.666667 Ba
0.600000 0.400000 0.000000 Ba
0.600000 0.400000 0.333333 Ba
0.600000 0.400000 0.666667 Ba
0.600000 0.600000 1.000000 Ba
0.600000 0.600000 0.333333 Ba
0.600000 0.600000 0.666667 Ba
0.600000 0.800000 0.000000 Ba
0.600000 0.800000 0.333333 Ba
0.600000 0.800000 0.666667 Ba
0.800000 0.000000 0.000000 Ba
0.800000 0.000000 0.333333 Ba
0.800000 0.000000 0.666667 Ba
0.800000 0.200000 0.000000 Ba
0.800000 0.200000 0.333333 Ba
0.800000 0.200000 0.666667 Ba
0.800000 0.400000 1.000000 Ba
0.800000 0.400000 0.333333 Ba
0.800000 0.400000 0.666667 Ba
0.800000 0.600000 0.000000 Ba
0.800000 0.600000 0.333333 Ba
0.800000 0.600000 0.666667 Ba
0.800000 0.800000 0.000000 Ba
0.800000 0.800000 0.333333 Ba
0.800000 0.800000 0.666667 Ba
0.000000 0.000000 0.166667 Ba
0.000000 0.000000 0.500000 Ba
0.000000 0.000000 0.833333 Ba
1.000000 0.200000 0.166667 Ba
1.000000 0.200000 0.500000 Ba
1.000000 0.200000 0.833333 Ba
1.000000 0.400000 0.166667 Ba
1.000000 0.400000 0.500000 Ba
1.000000 0.400000 0.833333 Ba
1.000000 0.600000 0.166667 Ba
1.000000 0.600000 0.500000 Ba
1.000000 0.600000 0.833333 Ba
1.000000 0.800000 0.166667 Ba
1.000000 0.800000 0.500000 Ba
1.000000 0.800000 0.833333 Ba
0.200000 0.000000 0.166667 Ba
0.200000 0.000000 0.500000 Ba
0.200000 0.000000 0.833333 Ba
0.200000 0.200000 0.166667 Ba
0.200000 0.200000 0.500000 Ba
0.200000 0.200000 0.833333 Ba
0.200000 0.400000 0.166667 Ba
0.200000 0.400000 0.500000 Ba
0.200000 0.400000 0.833333 Ba
0.200000 0.600000 0.166667 Ba
0.200000 0.600000 0.500000 Ba
0.200000 0.600000 0.833333 Ba
0.200000 0.800000 0.166667 Ba
0.200000 0.800000 0.500000 Ba
0.200000 0.800000 0.833333 Ba
0.400000 0.000000 0.166667 Ba
0.400000 0.000000 0.500000 Ba
0.400000 0.000000 0.833333 Ba
0.400000 0.200000 0.166667 Ba
0.400000 0.200000 0.500000 Ba
0.400000 0.200000 0.833333 Ba
0.400000 0.400000 0.166667 Ba
0.400000 0.400000 0.500000 Ba
0.400000 0.400000 0.833333 Ba
0.400000 0.600000 0.166667 Ba
0.400000 0.600000 0.500000 Ba
0.400000 0.600000 0.833333 Ba
0.400000 0.800000 0.166667 Ba
0.400000 0.800000 0.500000 Ba
0.400000 0.800000 0.833333 Ba
0.600000 0.000000 0.166667 Ba
0.600000 0.000000 0.500000 Ba
0.600000 0.000000 0.833333 Ba
0.600000 0.200000 0.166667 Ba
0.600000 0.200000 0.500000 Ba
0.600000 0.200000 0.833333 Ba
0.600000 0.400000 0.166667 Ba
0.600000 0.400000 0.500000 Ba
0.600000 0.400000 0.833333 Ba
0.600000 0.600000 0.166667 Ba
0.600000 0.600000 0.500000 Ba
0.600000 0.600000 0.833333 Ba
0.600000 0.800000 0.166667 Ba
0.600000 0.800000 0.500000 Ba
0.600000 0.800000 0.833333 Ba
0.800000 0.000000 0.166667 Ba
0.800000 0.000000 0.500000 Ba
0.800000 0.000000 0.833333 Ba
0.800000 0.200000 0.166667 Ba
0.800000 0.200000 0.500000 Ba
0.800000 0.200000 0.833333 Ba
0.800000 0.400000 0.166667 Ba
0.800000 0.400000 0.500000 Ba
0.800000 0.400000 0.833333 Ba
0.800000 0.600000 0.166667 Ba
0.800000 0.600000 0.500000 Ba
0.800000 0.600000 0.833333 Ba
0.800000 0.800000 0.166667 Ba
0.800000 0.800000 0.500000 Ba
0.800000 0.800000 0.833333 Ba
0.100000 0.100000 0.083333 Ta
0.100000 0.100000 0.416667 Ta
0.100000 0.100000 0.750000 Ta
0.100000 0.300000 0.083333 Ta
0.100000 0.300000 0.416667 Ta
0.100000 0.300000 0.750000 Ta
0.100000 0.500000 0.083333 Ta
0.100000 0.500000 0.416667 Ta
0.100000 0.500000 0.750000 Ta
0.100000 0.700000 0.083333 Ta
0.100000 0.700000 0.416667 Ta
0.100000 0.700000 0.750000 Ta
0.100000 0.900000 0.083333 Ta
0.100000 0.900000 0.416667 Ta
0.100000 0.900000 0.750000 Ta
0.300000 0.100000 0.083333 Ta
0.300000 0.100000 0.416667 Ta
0.300000 0.100000 0.750000 Ta
0.300000 0.300000 0.083333 Ta
0.300000 0.300000 0.416667 Ta
0.300000 0.300000 0.750000 Ta
0.300000 0.500000 0.083333 Ta
0.300000 0.500000 0.416667 Ta
0.300000 0.500000 0.750000 Ta
0.300000 0.700000 0.083333 Ta
0.300000 0.700000 0.416667 Ta
0.300000 0.700000 0.750000 Ta
0.300000 0.900000 0.083333 Ta
0.300000 0.900000 0.416667 Ta
0.300000 0.900000 0.750000 Ta
0.500000 0.100000 0.083333 Ta
0.500000 0.100000 0.416667 Ta
0.500000 0.100000 0.750000 Ta
0.500000 0.300000 0.083333 Ta
0.500000 0.300000 0.416667 Ta
0.500000 0.300000 0.750000 Ta
0.500000 0.500000 0.083333 Ta
0.500000 0.500000 0.416667 Ta
0.500000 0.500000 0.750000 Ta
0.500000 0.700000 0.083333 Ta
0.500000 0.700000 0.416667 Ta
0.500000 0.700000 0.750000 Ta
0.500000 0.900000 0.083333 Ta
0.500000 0.900000 0.416667 Ta
0.500000 0.900000 0.750000 Ta
0.700000 0.100000 0.083333 Ta
0.700000 0.100000 0.416667 Ta
0.700000 0.100000 0.750000 Ta
0.700000 0.300000 0.083333 Ta
0.700000 0.300000 0.416667 Ta
0.700000 0.300000 0.750000 Ta
0.700000 0.500000 0.083333 Ta
0.700000 0.500000 0.416667 Ta
0.700000 0.500000 0.750000 Ta
0.700000 0.700000 0.083333 Ta
0.700000 0.700000 0.416667 Ta
0.700000 0.700000 0.750000 Ta
0.700000 0.900000 0.083333 Ta
0.700000 0.900000 0.416667 Ta
0.700000 0.900000 0.750000 Ta
0.900000 0.100000 0.083333 Ta
0.900000 0.100000 0.416667 Ta
0.900000 0.100000 0.750000 Ta
0.900000 0.300000 0.083333 Ta
0.900000 0.300000 0.416667 Ta
0.900000 0.300000 0.750000 Ta
0.900000 0.500000 0.083333 Ta
0.900000 0.500000 0.416667 Ta
0.900000 0.500000 0.750000 Ta
0.900000 0.700000 0.083333 Ta
0.900000 0.700000 0.416667 Ta
0.900000 0.700000 0.750000 Ta
0.900000 0.900000 0.083333 Ta
0.900000 0.900000 0.416667 Ta
0.900000 0.900000 0.750000 Ta
0.100000 0.100000 0.250000 Ta
0.100000 0.100000 0.583333 Ta
0.100000 0.100000 0.916667 Ta
0.100000 0.300000 0.250000 Ta
0.100000 0.300000 0.583333 Ta
0.100000 0.300000 0.916667 Ta
0.100000 0.500000 0.250000 Ta
0.100000 0.500000 0.583333 Ta
0.100000 0.500000 0.916667 Ta
0.100000 0.700000 0.250000 Ta
0.100000 0.700000 0.583333 Ta
0.100000 0.700000 0.916667 Ta
0.100000 0.900000 0.250000 Ta
0.100000 0.900000 0.583333 Ta
0.100000 0.900000 0.916667 Ta
0.300000 0.100000 0.250000 Ta
0.300000 0.100000 0.583333 Ta
0.300000 0.100000 0.916667 Ta
0.300000 0.300000 0.250000 Ta
0.300000 0.300000 0.583333 Ta
0.300000 0.300000 0.916667 Ta
0.300000 0.500000 0.250000 Ta
0.300000 0.500000 0.583333 Ta
0.300000 0.500000 0.916667 Ta
0.300000 0.700000 0.250000 Ta
0.300000 0.700000 0.583333 Ta
0.300000 0.700000 0.916667 Ta
0.300000 0.900000 0.250000 Ta
0.300000 0.900000 0.583333 Ta
0.300000 0.900000 0.916667 Ta
0.500000 0.100000 0.250000 Ta
0.500000 0.100000 0.583333 Ta
0.500000 0.100000 0.916667 Ta
0.500000 0.300000 0.250000 Ta
0.500000 0.300000 0.583333 Ta
0.500000 0.300000 0.916667 Ta
0.500000 0.500000 0.250000 Ta
0.500000 0.500000 0.583333 Ta
0.500000 0.500000 0.916667 Ta
0.500000 0.700000 0.250000 Ta
0.500000 0.700000 0.583333 Ta
0.500000 0.700000 0.916667 Ta
0.500000 0.900000 0.250000 Ta
0.500000 0.900000 0.583333 Ta
0.500000 0.900000 0.916667 Ta
0.700000 0.100000 0.250000 Ta
0.700000 0.100000 0.583333 Ta
0.700000 0.100000 0.916667 Ta
0.700000 0.300000 0.250000 Ta
0.700000 0.300000 0.583333 Ta
0.700000 0.300000 0.916667 Ta
0.700000 0.500000 0.250000 Ta
0.700000 0.500000 0.583333 Ta
0.700000 0.500000 0.916667 Ta
0.700000 0.700000 0.250000 Ta
0.700000 0.700000 0.583333 Ta
0.700000 0.700000 0.916667 Ta
0.700000 0.900000 0.250000 Ta
0.700000 0.900000 0.583333 Ta
0.700000 0.900000 0.916667 Ta
0.900000 0.100000 0.250000 Ta
0.900000 0.100000 0.583333 Ta
0.900000 0.100000 0.916667 Ta
0.900000 0.300000 0.250000 Ta
0.900000 0.300000 0.583333 Ta
0.900000 0.300000 0.916667 Ta
0.900000 0.500000 0.250000 Ta
0.900000 0.500000 0.583333 Ta
0.900000 0.500000 0.916667 Ta
0.900000 0.700000 0.250000 Ta
0.900000 0.700000 0.583333 Ta
0.900000 0.700000 0.916667 Ta
0.900000 0.900000 0.250000 Ta
0.900000 0.900000 0.583333 Ta
0.900000 0.900000 0.916667 Ta
0.100000 0.100000 0.000000 N
0.100000 0.100000 0.333333 N
0.100000 0.100000 0.666667 N
0.100000 0.300000 0.000000 N
0.100000 0.300000 0.333333 N
0.100000 0.300000 0.666667 N
0.100000 0.500000 1.000000 N
0.100000 0.500000 0.333333 N
0.100000 0.500000 0.666667 N
0.100000 0.700000 1.000000 N
0.100000 0.700000 0.333333 N
0.100000 0.700000 0.666667 N
0.100000 0.900000 0.000000 N
0.100000 0.900000 0.333333 N
0.100000 0.900000 0.666667 N
0.300000 0.100000 0.000000 N
0.300000 0.100000 0.333333 N
0.300000 0.100000 0.666667 N
0.300000 0.300000 0.000000 N
0.300000 0.300000 0.333333 N
0.300000 0.300000 0.666667 N
0.300000 0.500000 0.000000 N
0.300000 0.500000 0.333333 N
0.300000 0.500000 0.666667 N
0.300000 0.700000 0.000000 N
0.300000 0.700000 0.333333 N
0.300000 0.700000 0.666667 N
0.300000 0.900000 1.000000 N
0.300000 0.900000 0.333333 N
0.300000 0.900000 0.666667 N
0.500000 0.100000 1.000000 N
0.500000 0.100000 0.333333 N
0.500000 0.100000 0.666667 N
0.500000 0.300000 0.000000 N
0.500000 0.300000 0.333333 N
0.500000 0.300000 0.666667 N
0.500000 0.500000 1.000000 N
0.500000 0.500000 0.333333 N
0.500000 0.500000 0.666667 N
0.500000 0.700000 1.000000 N
0.500000 0.700000 0.333333 N
0.500000 0.700000 0.666667 N
0.500000 0.900000 0.000000 N
0.500000 0.900000 0.333333 N
0.500000 0.900000 0.666667 N
0.700000 0.100000 1.000000 N
0.700000 0.100000 0.333333 N
0.700000 0.100000 0.666667 N
0.700000 0.300000 0.000000 N
0.700000 0.300000 0.333333 N
0.700000 0.300000 0.666667 N
0.700000 0.500000 0.000000 N
0.700000 0.500000 0.333333 N
0.700000 0.500000 0.666667 N
0.700000 0.700000 1.000000 N
0.700000 0.700000 0.333333 N
0.700000 0.700000 0.666667 N
0.700000 0.900000 0.000000 N
0.700000 0.900000 0.333333 N
0.700000 0.900000 0.666667 N
0.900000 0.100000 0.000000 N
0.900000 0.100000 0.333333 N
0.900000 0.100000 0.666667 N
0.900000 0.300000 1.000000 N
0.900000 0.300000 0.333333 N
0.900000 0.300000 0.666667 N
0.900000 0.500000 0.000000 N
0.900000 0.500000 0.333333 N
0.900000 0.500000 0.666667 N
0.900000 0.700000 1.000000 N
0.900000 0.700000 0.333333 N
0.900000 0.700000 0.666667 N
0.900000 0.900000 0.000000 N
0.900000 0.900000 0.333333 N
0.900000 0.900000 0.666667 N
0.100000 0.000000 0.083333 N
0.100000 0.000000 0.416667 N
0.100000 0.000000 0.750000 N
0.100000 0.200000 0.083333 N
0.100000 0.200000 0.416667 N
0.100000 0.200000 0.750000 N
0.100000 0.400000 0.083333 N
0.100000 0.400000 0.416667 N
0.100000 0.400000 0.750000 N
0.100000 0.600000 0.083333 N
0.100000 0.600000 0.416667 N
0.100000 0.600000 0.750000 N
0.100000 0.800000 0.083333 N
0.100000 0.800000 0.416667 N
0.100000 0.800000 0.750000 N
0.300000 0.000000 0.083333 N
0.300000 0.000000 0.416667 N
0.300000 0.000000 0.750000 N
0.300000 0.200000 0.083333 N
0.300000 0.200000 0.416667 N
0.300000 0.200000 0.750000 N
0.300000 0.400000 0.083333 N
0.300000 0.400000 0.416667 N
0.300000 0.400000 0.750000 N
0.300000 0.600000 0.083333 N
0.300000 0.600000 0.416667 N
0.300000 0.600000 0.750000 N
0.300000 0.800000 0.083333 N
0.300000 0.800000 0.416667 N
0.300000 0.800000 0.750000 N
0.500000 0.000000 0.083333 N
0.500000 0.000000 0.416667 N
0.500000 0.000000 0.750000 N
0.500000 0.200000 0.083333 N
0.500000 0.200000 0.416667 N
0.500000 0.200000 0.750000 N
0.500000 0.400000 0.083333 N
0.500000 0.400000 0.416667 N
0.500000 0.400000 0.750000 N
0.500000 0.600000 0.083333 N
0.500000 0.600000 0.416667 N
0.500000 0.600000 0.750000 N
0.500000 0.800000 0.083333 N
0.500000 0.800000 0.416667 N
0.500000 0.800000 0.750000 N
0.700000 0.000000 0.083333 N
0.700000 0.000000 0.416667 N
0.700000 0.000000 0.750000 N
0.700000 0.200000 0.083333 N
0.700000 0.200000 0.416667 N
0.700000 0.200000 0.750000 N
0.700000 0.400000 0.083333 N
0.700000 0.400000 0.416667 N
0.700000 0.400000 0.750000 N
0.700000 0.600000 0.083333 N
0.700000 0.600000 0.416667 N
0.700000 0.600000 0.750000 N
0.700000 0.800000 0.083333 N
0.700000 0.800000 0.416667 N
0.700000 0.800000 0.750000 N
0.900000 0.000000 0.083333 N
0.900000 0.000000 0.416667 N
0.900000 0.000000 0.750000 N
0.900000 0.200000 0.083333 N
0.900000 0.200000 0.416667 N
0.900000 0.200000 0.750000 N
0.900000 0.400000 0.083333 N
0.900000 0.400000 0.416667 N
0.900000 0.400000 0.750000 N
0.900000 0.600000 0.083333 N
0.900000 0.600000 0.416667 N
0.900000 0.600000 0.750000 N
0.900000 0.800000 0.083333 N
0.900000 0.800000 0.416667 N
0.900000 0.800000 0.750000 N
0.100000 0.100000 0.166667 O
0.100000 0.100000 0.500000 O
0.100000 0.100000 0.833333 O
0.100000 0.300000 0.166667 O
0.100000 0.300000 0.500000 O
0.100000 0.300000 0.833333 O
0.100000 0.500000 0.166667 O
0.100000 0.500000 0.500000 O
0.100000 0.500000 0.833333 O
0.100000 0.700000 0.166667 O
0.100000 0.700000 0.500000 O
0.100000 0.700000 0.833333 O
0.100000 0.900000 0.166667 O
0.100000 0.900000 0.500000 O
0.100000 0.900000 0.833333 O
0.300000 0.100000 0.166667 O
0.300000 0.100000 0.500000 O
0.300000 0.100000 0.833333 O
0.300000 0.300000 0.166667 O
0.300000 0.300000 0.500000 O
0.300000 0.300000 0.833333 O
0.300000 0.500000 0.166667 O
0.300000 0.500000 0.500000 O
0.300000 0.500000 0.833333 O
0.300000 0.700000 0.166667 O
0.300000 0.700000 0.500000 O
0.300000 0.700000 0.833333 O
0.300000 0.900000 0.166667 O
0.300000 0.900000 0.500000 O
0.300000 0.900000 0.833333 O
0.500000 0.100000 0.166667 O
0.500000 0.100000 0.500000 O
0.500000 0.100000 0.833333 O
0.500000 0.300000 0.166667 O
0.500000 0.300000 0.500000 O
0.500000 0.300000 0.833333 O
0.500000 0.500000 0.166667 O
0.500000 0.500000 0.500000 O
0.500000 0.500000 0.833333 O
0.500000 0.700000 0.166667 O
0.500000 0.700000 0.500000 O
0.500000 0.700000 0.833333 O
0.500000 0.900000 0.166667 O
0.500000 0.900000 0.500000 O
0.500000 0.900000 0.833333 O
0.700000 0.100000 0.166667 O
0.700000 0.100000 0.500000 O
0.700000 0.100000 0.833333 O
0.700000 0.300000 0.166667 O
0.700000 0.300000 0.500000 O
0.700000 0.300000 0.833333 O
0.700000 0.500000 0.166667 O
0.700000 0.500000 0.500000 O
0.700000 0.500000 0.833333 O
0.700000 0.700000 0.166667 O
0.700000 0.700000 0.500000 O
0.700000 0.700000 0.833333 O
0.700000 0.900000 0.166667 O
0.700000 0.900000 0.500000 O
0.700000 0.900000 0.833333 O
0.900000 0.100000 0.166667 O
0.900000 0.100000 0.500000 O
0.900000 0.100000 0.833333 O
0.900000 0.300000 0.166667 O
0.900000 0.300000 0.500000 O
0.900000 0.300000 0.833333 O
0.900000 0.500000 0.166667 O
0.900000 0.500000 0.500000 O
0.900000 0.500000 0.833333 O
0.900000 0.700000 0.166667 O
0.900000 0.700000 0.500000 O
0.900000 0.700000 0.833333 O
0.900000 0.900000 0.166667 O
0.900000 0.900000 0.500000 O
0.900000 0.900000 0.833333 O
0.100000 0.000000 0.250000 O
0.100000 0.000000 0.583333 O
0.100000 0.000000 0.916667 O
0.100000 0.200000 0.250000 O
0.100000 0.200000 0.583333 O
0.100000 0.200000 0.916667 O
0.100000 0.400000 0.250000 O
0.100000 0.400000 0.583333 O
0.100000 0.400000 0.916667 O
0.100000 0.600000 0.250000 O
0.100000 0.600000 0.583333 O
0.100000 0.600000 0.916667 O
0.100000 0.800000 0.250000 O
0.100000 0.800000 0.583333 O
0.100000 0.800000 0.916667 O
0.300000 0.000000 0.250000 O
0.300000 0.000000 0.583333 O
0.300000 0.000000 0.916667 O
0.300000 0.200000 0.250000 O
0.300000 0.200000 0.583333 O
0.300000 0.200000 0.916667 O
0.300000 0.400000 0.250000 O
0.300000 0.400000 0.583333 O
0.300000 0.400000 0.916667 O
0.300000 0.600000 0.250000 O
0.300000 0.600000 0.583333 O
0.300000 0.600000 0.916667 O
0.300000 0.800000 0.250000 O
0.300000 0.800000 0.583333 O
0.300000 0.800000 0.916667 O
0.500000 0.000000 0.250000 O
0.500000 0.000000 0.583333 O
0.500000 0.000000 0.916667 O
0.500000 0.200000 0.250000 O
0.500000 0.200000 0.583333 O
0.500000 0.200000 0.916667 O
0.500000 0.400000 0.250000 O
0.500000 0.400000 0.583333 O
0.500000 0.400000 0.916667 O
0.500000 0.600000 0.250000 O
0.500000 0.600000 0.583333 O
0.500000 0.600000 0.916667 O
0.500000 0.800000 0.250000 O
0.500000 0.800000 0.583333 O
0.500000 0.800000 0.916667 O
0.700000 0.000000 0.250000 O
0.700000 0.000000 0.583333 O
0.700000 0.000000 0.916667 O
0.700000 0.200000 0.250000 O
0.700000 0.200000 0.583333 O
0.700000 0.200000 0.916667 O
0.700000 0.400000 0.250000 O
0.700000 0.400000 0.583333 O
0.700000 0.400000 0.916667 O
0.700000 0.600000 0.250000 O
0.700000 0.600000 0.583333 O
0.700000 0.600000 0.916667 O
0.700000 0.800000 0.250000 O
0.700000 0.800000 0.583333 O
0.700000 0.800000 0.916667 O
0.900000 0.000000 0.250000 O
0.900000 0.000000 0.583333 O
0.900000 0.000000 0.916667 O
0.900000 0.200000 0.250000 O
0.900000 0.200000 0.583333 O
0.900000 0.200000 0.916667 O
0.900000 0.400000 0.250000 O
0.900000 0.400000 0.583333 O
0.900000 0.400000 0.916667 O
0.900000 0.600000 0.250000 O
0.900000 0.600000 0.583333 O
0.900000 0.600000 0.916667 O
0.900000 0.800000 0.250000 O
0.900000 0.800000 0.583333 O
0.900000 0.800000 0.916667 O
1.000000 0.100000 0.083333 O
1.000000 0.100000 0.416667 O
1.000000 0.100000 0.750000 O
1.000000 0.300000 0.083333 O
1.000000 0.300000 0.416667 O
1.000000 0.300000 0.750000 O
1.000000 0.500000 0.083333 O
1.000000 0.500000 0.416667 O
1.000000 0.500000 0.750000 O
0.000000 0.700000 0.083333 O
0.000000 0.700000 0.416667 O
0.000000 0.700000 0.750000 O
1.000000 0.900000 0.083333 O
1.000000 0.900000 0.416667 O
1.000000 0.900000 0.750000 O
0.200000 0.100000 0.083333 O
0.200000 0.100000 0.416667 O
0.200000 0.100000 0.750000 O
0.200000 0.300000 0.083333 O
0.200000 0.300000 0.416667 O
0.200000 0.300000 0.750000 O
0.200000 0.500000 0.083333 O
0.200000 0.500000 0.416667 O
0.200000 0.500000 0.750000 O
0.200000 0.700000 0.083333 O
0.200000 0.700000 0.416667 O
0.200000 0.700000 0.750000 O
0.200000 0.900000 0.083333 O
0.200000 0.900000 0.416667 O
0.200000 0.900000 0.750000 O
0.400000 0.100000 0.083333 O
0.400000 0.100000 0.416667 O
0.400000 0.100000 0.750000 O
0.400000 0.300000 0.083333 O
0.400000 0.300000 0.416667 O
0.400000 0.300000 0.750000 O
0.400000 0.500000 0.083333 O
0.400000 0.500000 0.416667 O
0.400000 0.500000 0.750000 O
0.400000 0.700000 0.083333 O
0.400000 0.700000 0.416667 O
0.400000 0.700000 0.750000 O
0.400000 0.900000 0.083333 O
0.400000 0.900000 0.416667 O
0.400000 0.900000 0.750000 O
0.600000 0.100000 0.083333 O
0.600000 0.100000 0.416667 O
0.600000 0.100000 0.750000 O
0.600000 0.300000 0.083333 O
0.600000 0.300000 0.416667 O
0.600000 0.300000 0.750000 O
0.600000 0.500000 0.083333 O
0.600000 0.500000 0.416667 O
0.600000 0.500000 0.750000 O
0.600000 0.700000 0.083333 O
0.600000 0.700000 0.416667 O
0.600000 0.700000 0.750000 O
0.600000 0.900000 0.083333 O
0.600000 0.900000 0.416667 O
0.600000 0.900000 0.750000 O
0.800000 0.100000 0.083333 O
0.800000 0.100000 0.416667 O
0.800000 0.100000 0.750000 O
0.800000 0.300000 0.083333 O
0.800000 0.300000 0.416667 O
0.800000 0.300000 0.750000 O
0.800000 0.500000 0.083333 O
0.800000 0.500000 0.416667 O
0.800000 0.500000 0.750000 O
0.800000 0.700000 0.083333 O
0.800000 0.700000 0.416667 O
0.800000 0.700000 0.750000 O
0.800000 0.900000 0.083333 O
0.800000 0.900000 0.416667 O
0.800000 0.900000 0.750000 O
1.000000 0.100000 0.250000 O
1.000000 0.100000 0.583333 O
1.000000 0.100000 0.916667 O
1.000000 0.300000 0.250000 O
1.000000 0.300000 0.583333 O
1.000000 0.300000 0.916667 O
1.000000 0.500000 0.250000 O
1.000000 0.500000 0.583333 O
1.000000 0.500000 0.916667 O
0.000000 0.700000 0.250000 O
0.000000 0.700000 0.583333 O
0.000000 0.700000 0.916667 O
1.000000 0.900000 0.250000 O
1.000000 0.900000 0.583333 O
1.000000 0.900000 0.916667 O
0.200000 0.100000 0.250000 O
0.200000 0.100000 0.583333 O
0.200000 0.100000 0.916667 O
0.200000 0.300000 0.250000 O
0.200000 0.300000 0.583333 O
0.200000 0.300000 0.916667 O
0.200000 0.500000 0.250000 O
0.200000 0.500000 0.583333 O
0.200000 0.500000 0.916667 O
0.200000 0.700000 0.250000 O
0.200000 0.700000 0.583333 O
0.200000 0.700000 0.916667 O
0.200000 0.900000 0.250000 O
0.200000 0.900000 0.583333 O
0.200000 0.900000 0.916667 O
0.400000 0.100000 0.250000 O
0.400000 0.100000 0.583333 O
0.400000 0.100000 0.916667 O
0.400000 0.300000 0.250000 O
0.400000 0.300000 0.583333 O
0.400000 0.300000 0.916667 O
0.400000 0.500000 0.250000 O
0.400000 0.500000 0.583333 O
0.400000 0.500000 0.916667 O
0.400000 0.700000 0.250000 O
0.400000 0.700000 0.583333 O
0.400000 0.700000 0.916667 O
0.400000 0.900000 0.250000 O
0.400000 0.900000 0.583333 O
0.400000 0.900000 0.916667 O
0.600000 0.100000 0.250000 O
0.600000 0.100000 0.583333 O
0.600000 0.100000 0.916667 O
0.600000 0.300000 0.250000 O
0.600000 0.300000 0.583333 O
0.600000 0.300000 0.916667 O
0.600000 0.500000 0.250000 O
0.600000 0.500000 0.583333 O
0.600000 0.500000 0.916667 O
0.600000 0.700000 0.250000 O
0.600000 0.700000 0.583333 O
0.600000 0.700000 0.916667 O
0.600000 0.900000 0.250000 O
0.600000 0.900000 0.583333 O
0.600000 0.900000 0.916667 O
0.800000 0.100000 0.250000 O
0.800000 0.100000 0.583333 O
0.800000 0.100000 0.916667 O
0.800000 0.300000 0.250000 O
0.800000 0.300000 0.583333 O
0.800000 0.300000 0.916667 O
0.800000 0.500000 0.250000 O
0.800000 0.500000 0.583333 O
0.800000 0.500000 0.916667 O
0.800000 0.700000 0.250000 O
0.800000 0.700000 0.583333 O
0.800000 0.700000 0.916667 O
0.800000 0.900000 0.250000 O
0.800000 0.900000 0.583333 O
0.800000 0.900000 0.916667 O
