La2 Ta2 N4 O2
1.0
3.989485 -4.124417 -0.000000
3.989485 4.124417 0.000000
0.000000 0.000000 4.124417
La Ta N O
2 2 4 2
direct
0.000000 0.500000 0.000000 La
0.500000 1.000000 0.000000 La
0.000000 0.000000 0.500000 Ta
0.500000 0.500000 0.500000 Ta
0.750000 0.250000 0.500000 N
0.500000 0.500000 0.000000 N
0.750000 0.750000 0.500000 N
0.250000 0.250000 0.500000 N
0.250000 0.750000 0.500000 O
1.000000 0.000000 1.000000 O
