Sr4 Ta4 N4 O8
1.0
8.099123 0.000000 0.000000
-0.000000 8.215339 0.000000
0.000000 0.000000 4.049561
Sr Ta N O
4 4 4 8
direct
0.750000 0.250000 0.000000 Sr
0.250000 0.250000 0.000000 Sr
0.250000 0.750000 0.000000 Sr
0.750000 0.750000 0.000000 Sr
0.500000 1.000000 0.500000 Ta
0.500000 0.500000 0.500000 Ta
0.000000 0.500000 0.500000 Ta
0.000000 0.000000 0.500000 Ta
0.000000 0.250000 0.500000 N
0.500000 0.000000 0.000000 N
0.500000 0.750000 0.500000 N
0.000000 0.500000 0.000000 N
0.500000 0.250000 0.500000 O
0.250000 0.000000 0.500000 O
0.250000 0.500000 0.500000 O
0.000000 0.000000 0.000000 O
0.000000 0.750000 0.500000 O
0.750000 0.500000 0.500000 O
0.750000 0.000000 0.500000 O
0.500000 0.500000 0.000000 O
