Ba4 Ta4 N4 O8
1.0
8.248834 0.000000 0.000000
0.000000 7.978970 0.000000
0.000000 3.989485 4.124417
Ba Ta N O
4 4 4 8
direct
0.250000 0.750000 0.000000 Ba
0.250000 0.250000 0.000000 Ba
0.750000 0.250000 0.000000 Ba
0.750000 0.750000 0.000000 Ba
0.000000 0.250000 0.500000 Ta
0.500000 0.250000 0.500000 Ta
0.500000 0.750000 0.500000 Ta
0.000000 0.750000 0.500000 Ta
0.000000 0.000000 0.500000 N
0.500000 0.000000 0.000000 N
0.500000 0.500000 0.500000 N
0.000000 0.500000 0.000000 N
0.000000 0.500000 0.500000 O
0.000000 0.000000 0.000000 O
0.250000 0.750000 0.500000 O
0.250000 0.250000 0.500000 O
0.500000 0.000000 0.500000 O
0.500000 0.500000 0.000000 O
0.750000 0.250000 0.500000 O
0.750000 0.750000 0.500000 O
