Ba1 Ta1 N1 O2
1.0
4.124417 0.000000 0.000000
-0.000000 4.124417 0.000000
0.000000 0.000000 3.989485
Ba Ta N O
1 1 1 2
direct
0.000000 0.000000 0.000000 Ba
0.500000 0.500000 0.500000 Ta
0.500000 0.500000 0.000000 N
0.000000 0.500000 0.500000 O
0.500000 0.000000 0.500000 O
