Ca2 Ta2 N2 O4
1.0
3.989485 -4.124417 -0.000000
3.989485 4.124417 0.000000
0.000000 0.000000 4.124417
Ca Ta N O
2 2 2 4
direct
0.000000 0.500000 0.000000 Ca
0.500000 1.000000 0.000000 Ca
0.000000 0.000000 0.500000 Ta
0.500000 0.500000 0.500000 Ta
0.750000 0.750000 0.500000 N
0.000000 0.000000 0.000000 N
0.250000 0.250000 0.500000 O
0.250000 0.750000 0.500000 O
0.750000 0.250000 0.500000 O
0.500000 0.500000 0.000000 O
