Sr1 Ta1 O2 N1                           
   1.0000000000000000     
     4.0495614573389203    0.0000000000000000    0.0000000000000000
     0.0000000000000000    4.0495614573389203    0.0000000000000000
     0.0000000000000000    0.0000000000000000    4.1076693725169084
   Sr   Ta   O    N 
     1     1     2     1
Direct
  0.0000000000000000  0.0000000000000000  0.0000000000000000
  0.5000000000000000  0.5000000000000000  0.5000000000000000
  0.5000000000000000  0.0000000000000000  0.5000000000000000
  0.0000000000000000  0.5000000000000000  0.5000000000000000
  0.5000000000000000  0.5000000000000000  0.0000000000000000

  0.00000000E+00  0.00000000E+00  0.00000000E+00
  0.00000000E+00  0.00000000E+00  0.00000000E+00
  0.00000000E+00  0.00000000E+00  0.00000000E+00
  0.00000000E+00  0.00000000E+00  0.00000000E+00
  0.00000000E+00  0.00000000E+00  0.00000000E+00
