Ca1 Ta1 N1 O2
1.0
4.124417 0.000000 0.000000
0.000000 4.124417 0.000000
0.000000 0.000000 3.989485
Ca Ta O N
1 1 2 1
direct
0.000000 0.000000 0.000000 Ca
0.500000 0.500000 0.500000 Ta
0.500000 0.000000 0.500000 O
0.000000 0.500000 0.500000 O
0.500000 0.500000 0.000000 N
