Ca120 Ta120 N120 O240
1.0
16.497668 0.000000 0.000000
-0.000000 23.936910 0.000000
0.000000 3.989485 20.622085
Ca Ta N O
120 120 120 240
direct
0.125000 0.116667 0.800000 Ca
0.875000 0.150000 0.600000 Ca
0.875000 0.283333 0.800000 Ca
0.625000 0.116667 0.800000 Ca
0.375000 0.150000 0.600000 Ca
0.375000 0.283333 0.800000 Ca
0.125000 0.183333 0.400000 Ca
0.125000 0.316667 0.600000 Ca
0.125000 0.450000 0.800000 Ca
0.875000 0.083333 0.000000 Ca
0.875000 0.216667 0.200000 Ca
0.875000 0.350000 0.400000 Ca
0.875000 0.483333 0.600000 Ca
0.875000 0.616667 0.800000 Ca
0.625000 0.183333 0.400000 Ca
0.625000 0.316667 0.600000 Ca
0.625000 0.450000 0.800000 Ca
0.375000 0.083333 0.000000 Ca
0.375000 0.216667 0.200000 Ca
0.375000 0.350000 0.400000 Ca
0.375000 0.483333 0.600000 Ca
0.375000 0.616667 0.800000 Ca
0.125000 0.250000 0.000000 Ca
0.125000 0.383333 0.200000 Ca
0.125000 0.516667 0.400000 Ca
0.125000 0.650000 0.600000 Ca
0.125000 0.783333 0.800000 Ca
0.875000 0.416667 0.000000 Ca
0.875000 0.550000 0.200000 Ca
0.875000 0.683333 0.400000 Ca
0.875000 0.816667 0.600000 Ca
0.875000 0.950000 0.800000 Ca
0.625000 0.250000 0.000000 Ca
0.625000 0.383333 0.200000 Ca
0.625000 0.516667 0.400000 Ca
0.625000 0.650000 0.600000 Ca
0.625000 0.783333 0.800000 Ca
0.375000 0.416667 0.000000 Ca
0.375000 0.550000 0.200000 Ca
0.375000 0.683333 0.400000 Ca
0.375000 0.816667 0.600000 Ca
0.375000 0.950000 0.800000 Ca
0.125000 0.583333 0.000000 Ca
0.125000 0.716667 0.200000 Ca
0.125000 0.850000 0.400000 Ca
0.125000 0.983333 0.600000 Ca
0.875000 0.750000 0.000000 Ca
0.875000 0.883333 0.200000 Ca
0.875000 0.016667 0.400000 Ca
0.625000 0.583333 0.000000 Ca
0.625000 0.716667 0.200000 Ca
0.625000 0.850000 0.400000 Ca
0.625000 0.983333 0.600000 Ca
0.375000 0.750000 0.000000 Ca
0.375000 0.883333 0.200000 Ca
0.375000 0.016667 0.400000 Ca
0.125000 0.916667 0.000000 Ca
0.125000 0.050000 0.200000 Ca
0.625000 0.916667 0.000000 Ca
0.625000 0.050000 0.200000 Ca
0.375000 0.116667 0.800000 Ca
0.125000 0.150000 0.600000 Ca
0.125000 0.283333 0.800000 Ca
0.875000 0.116667 0.800000 Ca
0.625000 0.150000 0.600000 Ca
0.625000 0.283333 0.800000 Ca
0.375000 0.183333 0.400000 Ca
0.375000 0.316667 0.600000 Ca
0.375000 0.450000 0.800000 Ca
0.125000 0.083333 0.000000 Ca
0.125000 0.216667 0.200000 Ca
0.125000 0.350000 0.400000 Ca
0.125000 0.483333 0.600000 Ca
0.125000 0.616667 0.800000 Ca
0.875000 0.183333 0.400000 Ca
0.875000 0.316667 0.600000 Ca
0.875000 0.450000 0.800000 Ca
0.625000 0.083333 0.000000 Ca
0.625000 0.216667 0.200000 Ca
0.625000 0.350000 0.400000 Ca
0.625000 0.483333 0.600000 Ca
0.625000 0.616667 0.800000 Ca
0.375000 0.250000 0.000000 Ca
0.375000 0.383333 0.200000 Ca
0.375000 0.516667 0.400000 Ca
0.375000 0.650000 0.600000 Ca
0.375000 0.783333 0.800000 Ca
0.125000 0.416667 0.000000 Ca
0.125000 0.550000 0.200000 Ca
0.125000 0.683333 0.400000 Ca
0.125000 0.816667 0.600000 Ca
0.125000 0.950000 0.800000 Ca
0.875000 0.250000 0.000000 Ca
0.875000 0.383333 0.200000 Ca
0.875000 0.516667 0.400000 Ca
0.875000 0.650000 0.600000 Ca
0.875000 0.783333 0.800000 Ca
0.625000 0.416667 0.000000 Ca
0.625000 0.550000 0.200000 Ca
0.625000 0.683333 0.400000 Ca
0.625000 0.816667 0.600000 Ca
0.625000 0.950000 0.800000 Ca
0.375000 0.583333 0.000000 Ca
0.375000 0.716667 0.200000 Ca
0.375000 0.850000 0.400000 Ca
0.375000 0.983333 0.600000 Ca
0.125000 0.750000 0.000000 Ca
0.125000 0.883333 0.200000 Ca
0.125000 0.016667 0.400000 Ca
0.875000 0.583333 0.000000 Ca
0.875000 0.716667 0.200000 Ca
0.875000 0.850000 0.400000 Ca
0.875000 0.983333 0.600000 Ca
0.625000 0.750000 0.000000 Ca
0.625000 0.883333 0.200000 Ca
0.625000 0.016667 0.400000 Ca
0.375000 0.916667 0.000000 Ca
0.375000 0.050000 0.200000 Ca
0.875000 0.916667 0.000000 Ca
0.875000 0.050000 0.200000 Ca
0.250000 0.183333 0.900000 Ta
0.000000 0.216667 0.700000 Ta
0.000000 0.350000 0.900000 Ta
0.750000 0.183333 0.900000 Ta
0.500000 0.216667 0.700000 Ta
0.500000 0.350000 0.900000 Ta
0.250000 0.250000 0.500000 Ta
0.250000 0.383333 0.700000 Ta
0.250000 0.516667 0.900000 Ta
0.000000 0.150000 0.100000 Ta
0.000000 0.283333 0.300000 Ta
0.000000 0.416667 0.500000 Ta
0.000000 0.550000 0.700000 Ta
0.000000 0.683333 0.900000 Ta
0.750000 0.250000 0.500000 Ta
0.750000 0.383333 0.700000 Ta
0.750000 0.516667 0.900000 Ta
0.500000 0.150000 0.100000 Ta
0.500000 0.283333 0.300000 Ta
0.500000 0.416667 0.500000 Ta
0.500000 0.550000 0.700000 Ta
0.500000 0.683333 0.900000 Ta
0.250000 0.316667 0.100000 Ta
0.250000 0.450000 0.300000 Ta
0.250000 0.583333 0.500000 Ta
0.250000 0.716667 0.700000 Ta
0.250000 0.850000 0.900000 Ta
0.000000 0.483333 0.100000 Ta
0.000000 0.616667 0.300000 Ta
0.000000 0.750000 0.500000 Ta
0.000000 0.883333 0.700000 Ta
0.000000 0.016667 0.900000 Ta
0.750000 0.316667 0.100000 Ta
0.750000 0.450000 0.300000 Ta
0.750000 0.583333 0.500000 Ta
0.750000 0.716667 0.700000 Ta
0.750000 0.850000 0.900000 Ta
0.500000 0.483333 0.100000 Ta
0.500000 0.616667 0.300000 Ta
0.500000 0.750000 0.500000 Ta
0.500000 0.883333 0.700000 Ta
0.500000 0.016667 0.900000 Ta
0.250000 0.650000 0.100000 Ta
0.250000 0.783333 0.300000 Ta
0.250000 0.916667 0.500000 Ta
0.250000 0.050000 0.700000 Ta
0.000000 0.816667 0.100000 Ta
0.000000 0.950000 0.300000 Ta
0.000000 0.083333 0.500000 Ta
0.750000 0.650000 0.100000 Ta
0.750000 0.783333 0.300000 Ta
0.750000 0.916667 0.500000 Ta
0.750000 0.050000 0.700000 Ta
0.500000 0.816667 0.100000 Ta
0.500000 0.950000 0.300000 Ta
0.500000 0.083333 0.500000 Ta
0.250000 0.983333 0.100000 Ta
0.250000 0.116667 0.300000 Ta
0.750000 0.983333 0.100000 Ta
0.750000 0.116667 0.300000 Ta
0.250000 0.350000 0.900000 Ta
1.000000 0.383333 0.700000 Ta
1.000000 0.516667 0.900000 Ta
0.750000 0.350000 0.900000 Ta
0.500000 0.383333 0.700000 Ta
0.500000 0.516667 0.900000 Ta
0.250000 0.416667 0.500000 Ta
0.250000 0.550000 0.700000 Ta
0.250000 0.683333 0.900000 Ta
1.000000 0.316667 0.100000 Ta
1.000000 0.450000 0.300000 Ta
1.000000 0.583333 0.500000 Ta
1.000000 0.716667 0.700000 Ta
1.000000 0.850000 0.900000 Ta
0.750000 0.416667 0.500000 Ta
0.750000 0.550000 0.700000 Ta
0.750000 0.683333 0.900000 Ta
0.500000 0.316667 0.100000 Ta
0.500000 0.450000 0.300000 Ta
0.500000 0.583333 0.500000 Ta
0.500000 0.716667 0.700000 Ta
0.500000 0.850000 0.900000 Ta
0.250000 0.483333 0.100000 Ta
0.250000 0.616667 0.300000 Ta
0.250000 0.750000 0.500000 Ta
0.250000 0.883333 0.700000 Ta
0.250000 0.016667 0.900000 Ta
1.000000 0.650000 0.100000 Ta
1.000000 0.783333 0.300000 Ta
1.000000 0.916667 0.500000 Ta
1.000000 0.050000 0.700000 Ta
1.000000 0.183333 0.900000 Ta
0.750000 0.483333 0.100000 Ta
0.750000 0.616667 0.300000 Ta
0.750000 0.750000 0.500000 Ta
0.750000 0.883333 0.700000 Ta
0.750000 0.016667 0.900000 Ta
0.500000 0.650000 0.100000 Ta
0.500000 0.783333 0.300000 Ta
0.500000 0.916667 0.500000 Ta
0.500000 0.050000 0.700000 Ta
0.500000 0.183333 0.900000 Ta
0.250000 0.816667 0.100000 Ta
0.250000 0.950000 0.300000 Ta
0.250000 0.083333 0.500000 Ta
0.250000 0.216667 0.700000 Ta
1.000000 0.983333 0.100000 Ta
1.000000 0.116667 0.300000 Ta
1.000000 0.250000 0.500000 Ta
0.750000 0.816667 0.100000 Ta
0.750000 0.950000 0.300000 Ta
0.750000 0.083333 0.500000 Ta
0.750000 0.216667 0.700000 Ta
0.500000 0.983333 0.100000 Ta
0.500000 0.116667 0.300000 Ta
0.500000 0.250000 0.500000 Ta
0.250000 0.150000 0.100000 Ta
0.250000 0.283333 0.300000 Ta
0.750000 0.150000 0.100000 Ta
0.750000 0.283333 0.300000 Ta
0.250000 0.100000 0.900000 N
0.000000 0.133333 0.700000 N
0.000000 0.266667 0.900000 N
0.750000 0.100000 0.900000 N
0.500000 0.133333 0.700000 N
0.500000 0.266667 0.900000 N
0.250000 0.166667 0.500000 N
0.250000 0.300000 0.700000 N
0.250000 0.433333 0.900000 N
0.000000 0.066667 0.100000 N
0.000000 0.200000 0.300000 N
0.000000 0.333333 0.500000 N
0.000000 0.466667 0.700000 N
0.000000 0.600000 0.900000 N
0.750000 0.166667 0.500000 N
0.750000 0.300000 0.700000 N
0.750000 0.433333 0.900000 N
0.500000 0.066667 0.100000 N
0.500000 0.200000 0.300000 N
0.500000 0.333333 0.500000 N
0.500000 0.466667 0.700000 N
0.500000 0.600000 0.900000 N
0.250000 0.233333 0.100000 N
0.250000 0.366667 0.300000 N
0.250000 0.500000 0.500000 N
0.250000 0.633333 0.700000 N
0.250000 0.766667 0.900000 N
0.000000 0.400000 0.100000 N
0.000000 0.533333 0.300000 N
0.000000 0.666667 0.500000 N
0.000000 0.800000 0.700000 N
0.000000 0.933333 0.900000 N
0.750000 0.233333 0.100000 N
0.750000 0.366667 0.300000 N
0.750000 0.500000 0.500000 N
0.750000 0.633333 0.700000 N
0.750000 0.766667 0.900000 N
0.500000 0.400000 0.100000 N
0.500000 0.533333 0.300000 N
0.500000 0.666667 0.500000 N
0.500000 0.800000 0.700000 N
0.500000 0.933333 0.900000 N
0.250000 0.566667 0.100000 N
0.250000 0.700000 0.300000 N
0.250000 0.833333 0.500000 N
0.250000 0.966667 0.700000 N
0.000000 0.733333 0.100000 N
0.000000 0.866667 0.300000 N
0.000000 0.000000 0.500000 N
0.750000 0.566667 0.100000 N
0.750000 0.700000 0.300000 N
0.750000 0.833333 0.500000 N
0.750000 0.966667 0.700000 N
0.500000 0.733333 0.100000 N
0.500000 0.866667 0.300000 N
0.500000 0.000000 0.500000 N
0.250000 0.900000 0.100000 N
0.250000 0.033333 0.300000 N
0.750000 0.900000 0.100000 N
0.750000 0.033333 0.300000 N
0.250000 0.200000 0.800000 N
1.000000 0.233333 0.600000 N
1.000000 0.366667 0.800000 N
0.750000 0.200000 0.800000 N
0.500000 0.233333 0.600000 N
0.500000 0.366667 0.800000 N
0.250000 0.266667 0.400000 N
0.250000 0.400000 0.600000 N
0.250000 0.533333 0.800000 N
1.000000 0.166667 0.000000 N
1.000000 0.300000 0.200000 N
1.000000 0.433333 0.400000 N
1.000000 0.566667 0.600000 N
1.000000 0.700000 0.800000 N
0.750000 0.266667 0.400000 N
0.750000 0.400000 0.600000 N
0.750000 0.533333 0.800000 N
0.500000 0.166667 0.000000 N
0.500000 0.300000 0.200000 N
0.500000 0.433333 0.400000 N
0.500000 0.566667 0.600000 N
0.500000 0.700000 0.800000 N
0.250000 0.333333 0.000000 N
0.250000 0.466667 0.200000 N
0.250000 0.600000 0.400000 N
0.250000 0.733333 0.600000 N
0.250000 0.866667 0.800000 N
1.000000 0.500000 0.000000 N
1.000000 0.633333 0.200000 N
1.000000 0.766667 0.400000 N
1.000000 0.900000 0.600000 N
1.000000 0.033333 0.800000 N
0.750000 0.333333 0.000000 N
0.750000 0.466667 0.200000 N
0.750000 0.600000 0.400000 N
0.750000 0.733333 0.600000 N
0.750000 0.866667 0.800000 N
0.500000 0.500000 0.000000 N
0.500000 0.633333 0.200000 N
0.500000 0.766667 0.400000 N
0.500000 0.900000 0.600000 N
0.500000 0.033333 0.800000 N
0.250000 0.666667 0.000000 N
0.250000 0.800000 0.200000 N
0.250000 0.933333 0.400000 N
0.250000 0.066667 0.600000 N
1.000000 0.833333 0.000000 N
1.000000 0.966667 0.200000 N
1.000000 0.100000 0.400000 N
0.750000 0.666667 0.000000 N
0.750000 0.800000 0.200000 N
0.750000 0.933333 0.400000 N
0.750000 0.066667 0.600000 N
0.500000 0.833333 0.000000 N
0.500000 0.966667 0.200000 N
0.500000 0.100000 0.400000 N
0.250000 1.000000 0.000000 N
0.250000 0.133333 0.200000 N
0.750000 1.000000 0.000000 N
0.750000 0.133333 0.200000 N
0.250000 0.266667 0.900000 O
1.000000 0.300000 0.700000 O
1.000000 0.433333 0.900000 O
0.750000 0.266667 0.900000 O
0.500000 0.300000 0.700000 O
0.500000 0.433333 0.900000 O
0.250000 0.333333 0.500000 O
0.250000 0.466667 0.700000 O
0.250000 0.600000 0.900000 O
1.000000 0.233333 0.100000 O
1.000000 0.366667 0.300000 O
1.000000 0.500000 0.500000 O
1.000000 0.633333 0.700000 O
1.000000 0.766667 0.900000 O
0.750000 0.333333 0.500000 O
0.750000 0.466667 0.700000 O
0.750000 0.600000 0.900000 O
0.500000 0.233333 0.100000 O
0.500000 0.366667 0.300000 O
0.500000 0.500000 0.500000 O
0.500000 0.633333 0.700000 O
0.500000 0.766667 0.900000 O
0.250000 0.400000 0.100000 O
0.250000 0.533333 0.300000 O
0.250000 0.666667 0.500000 O
0.250000 0.800000 0.700000 O
0.250000 0.933333 0.900000 O
1.000000 0.566667 0.100000 O
1.000000 0.700000 0.300000 O
1.000000 0.833333 0.500000 O
1.000000 0.966667 0.700000 O
1.000000 0.100000 0.900000 O
0.750000 0.400000 0.100000 O
0.750000 0.533333 0.300000 O
0.750000 0.666667 0.500000 O
0.750000 0.800000 0.700000 O
0.750000 0.933333 0.900000 O
0.500000 0.566667 0.100000 O
0.500000 0.700000 0.300000 O
0.500000 0.833333 0.500000 O
0.500000 0.966667 0.700000 O
0.500000 0.100000 0.900000 O
0.250000 0.733333 0.100000 O
0.250000 0.866667 0.300000 O
0.250000 0.000000 0.500000 O
0.250000 0.133333 0.700000 O
1.000000 0.900000 0.100000 O
1.000000 0.033333 0.300000 O
1.000000 0.166667 0.500000 O
0.750000 0.733333 0.100000 O
0.750000 0.866667 0.300000 O
0.750000 0.000000 0.500000 O
0.750000 0.133333 0.700000 O
0.500000 0.900000 0.100000 O
0.500000 0.033333 0.300000 O
0.500000 0.166667 0.500000 O
0.250000 0.066667 0.100000 O
0.250000 0.200000 0.300000 O
0.750000 0.066667 0.100000 O
0.750000 0.200000 0.300000 O
0.250000 0.033333 0.800000 O
0.000000 0.066667 0.600000 O
0.000000 0.200000 0.800000 O
0.750000 0.033333 0.800000 O
0.500000 0.066667 0.600000 O
0.500000 0.200000 0.800000 O
0.250000 0.100000 0.400000 O
0.250000 0.233333 0.600000 O
0.250000 0.366667 0.800000 O
0.000000 0.000000 0.000000 O
0.000000 0.133333 0.200000 O
0.000000 0.266667 0.400000 O
1.000000 0.400000 0.600000 O
0.000000 0.533333 0.800000 O
0.750000 0.100000 0.400000 O
0.750000 0.233333 0.600000 O
0.750000 0.366667 0.800000 O
0.500000 0.000000 0.000000 O
0.500000 0.133333 0.200000 O
0.500000 0.266667 0.400000 O
0.500000 0.400000 0.600000 O
0.500000 0.533333 0.800000 O
0.250000 0.166667 0.000000 O
0.250000 0.300000 0.200000 O
0.250000 0.433333 0.400000 O
0.250000 0.566667 0.600000 O
0.250000 0.700000 0.800000 O
0.000000 0.333333 0.000000 O
0.000000 0.466667 0.200000 O
0.000000 0.600000 0.400000 O
0.000000 0.733333 0.600000 O
0.000000 0.866667 0.800000 O
0.750000 0.166667 0.000000 O
0.750000 0.300000 0.200000 O
0.750000 0.433333 0.400000 O
0.750000 0.566667 0.600000 O
0.750000 0.700000 0.800000 O
0.500000 0.333333 0.000000 O
0.500000 0.466667 0.200000 O
0.500000 0.600000 0.400000 O
0.500000 0.733333 0.600000 O
0.500000 0.866667 0.800000 O
0.250000 0.500000 0.000000 O
0.250000 0.633333 0.200000 O
0.250000 0.766667 0.400000 O
0.250000 0.900000 0.600000 O
0.000000 0.666667 0.000000 O
0.000000 0.800000 0.200000 O
0.000000 0.933333 0.400000 O
0.750000 0.500000 0.000000 O
0.750000 0.633333 0.200000 O
0.750000 0.766667 0.400000 O
0.750000 0.900000 0.600000 O
0.500000 0.666667 0.000000 O
0.500000 0.800000 0.200000 O
0.500000 0.933333 0.400000 O
0.250000 0.833333 0.000000 O
0.250000 0.966667 0.200000 O
0.750000 0.833333 0.000000 O
0.750000 0.966667 0.200000 O
0.125000 0.183333 0.900000 O
0.875000 0.216667 0.700000 O
0.875000 0.350000 0.900000 O
0.625000 0.183333 0.900000 O
0.375000 0.216667 0.700000 O
0.375000 0.350000 0.900000 O
0.125000 0.250000 0.500000 O
0.125000 0.383333 0.700000 O
0.125000 0.516667 0.900000 O
0.875000 0.150000 0.100000 O
0.875000 0.283333 0.300000 O
0.875000 0.416667 0.500000 O
0.875000 0.550000 0.700000 O
0.875000 0.683333 0.900000 O
0.625000 0.250000 0.500000 O
0.625000 0.383333 0.700000 O
0.625000 0.516667 0.900000 O
0.375000 0.150000 0.100000 O
0.375000 0.283333 0.300000 O
0.375000 0.416667 0.500000 O
0.375000 0.550000 0.700000 O
0.375000 0.683333 0.900000 O
0.125000 0.316667 0.100000 O
0.125000 0.450000 0.300000 O
0.125000 0.583333 0.500000 O
0.125000 0.716667 0.700000 O
0.125000 0.850000 0.900000 O
0.875000 0.483333 0.100000 O
0.875000 0.616667 0.300000 O
0.875000 0.750000 0.500000 O
0.875000 0.883333 0.700000 O
0.875000 0.016667 0.900000 O
0.625000 0.316667 0.100000 O
0.625000 0.450000 0.300000 O
0.625000 0.583333 0.500000 O
0.625000 0.716667 0.700000 O
0.625000 0.850000 0.900000 O
0.375000 0.483333 0.100000 O
0.375000 0.616667 0.300000 O
0.375000 0.750000 0.500000 O
0.375000 0.883333 0.700000 O
0.375000 0.016667 0.900000 O
0.125000 0.650000 0.100000 O
0.125000 0.783333 0.300000 O
0.125000 0.916667 0.500000 O
0.125000 0.050000 0.700000 O
0.875000 0.816667 0.100000 O
0.875000 0.950000 0.300000 O
0.875000 0.083333 0.500000 O
0.625000 0.650000 0.100000 O
0.625000 0.783333 0.300000 O
0.625000 0.916667 0.500000 O
0.625000 0.050000 0.700000 O
0.375000 0.816667 0.100000 O
0.375000 0.950000 0.300000 O
0.375000 0.083333 0.500000 O
0.125000 0.983333 0.100000 O
0.125000 0.116667 0.300000 O
0.625000 0.983333 0.100000 O
0.625000 0.116667 0.300000 O
0.375000 0.183333 0.900000 O
0.125000 0.216667 0.700000 O
0.125000 0.350000 0.900000 O
0.875000 0.183333 0.900000 O
0.625000 0.216667 0.700000 O
0.625000 0.350000 0.900000 O
0.375000 0.250000 0.500000 O
0.375000 0.383333 0.700000 O
0.375000 0.516667 0.900000 O
0.125000 0.150000 0.100000 O
0.125000 0.283333 0.300000 O
0.125000 0.416667 0.500000 O
0.125000 0.550000 0.700000 O
0.125000 0.683333 0.900000 O
0.875000 0.250000 0.500000 O
0.875000 0.383333 0.700000 O
0.875000 0.516667 0.900000 O
0.625000 0.150000 0.100000 O
0.625000 0.283333 0.300000 O
0.625000 0.416667 0.500000 O
0.625000 0.550000 0.700000 O
0.625000 0.683333 0.900000 O
0.375000 0.316667 0.100000 O
0.375000 0.450000 0.300000 O
0.375000 0.583333 0.500000 O
0.375000 0.716667 0.700000 O
0.375000 0.850000 0.900000 O
0.125000 0.483333 0.100000 O
0.125000 0.616667 0.300000 O
0.125000 0.750000 0.500000 O
0.125000 0.883333 0.700000 O
0.125000 0.016667 0.900000 O
0.875000 0.316667 0.100000 O
0.875000 0.450000 0.300000 O
0.875000 0.583333 0.500000 O
0.875000 0.716667 0.700000 O
0.875000 0.850000 0.900000 O
0.625000 0.483333 0.100000 O
0.625000 0.616667 0.300000 O
0.625000 0.750000 0.500000 O
0.625000 0.883333 0.700000 O
0.625000 0.016667 0.900000 O
0.375000 0.650000 0.100000 O
0.375000 0.783333 0.300000 O
0.375000 0.916667 0.500000 O
0.375000 0.050000 0.700000 O
0.125000 0.816667 0.100000 O
0.125000 0.950000 0.300000 O
0.125000 0.083333 0.500000 O
0.875000 0.650000 0.100000 O
0.875000 0.783333 0.300000 O
0.875000 0.916667 0.500000 O
0.875000 0.050000 0.700000 O
0.625000 0.816667 0.100000 O
0.625000 0.950000 0.300000 O
0.625000 0.083333 0.500000 O
0.375000 0.983333 0.100000 O
0.375000 0.116667 0.300000 O
0.875000 0.983333 0.100000 O
0.875000 0.116667 0.300000 O
