La2 Ta2 N4 O2
1.0
4.124417 0.000000 0.000000
0.000000 4.124417 0.000000
0.000000 0.000000 7.978970
La Ta N O
2 2 4 2
direct
0.000000 0.000000 0.750000 La
0.000000 0.000000 0.250000 La
0.500000 0.500000 0.000000 Ta
0.500000 0.500000 0.500000 Ta
0.500000 0.000000 0.500000 N
0.000000 0.500000 0.500000 N
0.500000 0.500000 0.750000 N
0.500000 0.500000 0.250000 N
0.500000 0.000000 0.000000 O
0.000000 0.500000 0.000000 O
