Ba80 Ta80 N80 O160
1.0
16.497668 0.000000 0.000000
-0.000000 16.497668 0.000000
0.000000 0.000000 19.947425
Ba Ta N O
80 80 80 160
direct
0.000000 0.000000 0.000000 Ba
0.000000 0.000000 0.200000 Ba
0.000000 0.000000 0.400000 Ba
0.000000 0.000000 0.600000 Ba
0.000000 0.000000 0.800000 Ba
1.000000 0.250000 0.000000 Ba
1.000000 0.250000 0.200000 Ba
1.000000 0.250000 0.400000 Ba
1.000000 0.250000 0.600000 Ba
1.000000 0.250000 0.800000 Ba
1.000000 0.500000 0.000000 Ba
1.000000 0.500000 0.200000 Ba
1.000000 0.500000 0.400000 Ba
1.000000 0.500000 0.600000 Ba
1.000000 0.500000 0.800000 Ba
1.000000 0.750000 0.000000 Ba
1.000000 0.750000 0.200000 Ba
1.000000 0.750000 0.400000 Ba
1.000000 0.750000 0.600000 Ba
1.000000 0.750000 0.800000 Ba
0.250000 0.000000 0.000000 Ba
0.250000 0.000000 0.200000 Ba
0.250000 0.000000 0.400000 Ba
0.250000 0.000000 0.600000 Ba
0.250000 0.000000 0.800000 Ba
0.250000 0.250000 0.000000 Ba
0.250000 0.250000 0.200000 Ba
0.250000 0.250000 0.400000 Ba
0.250000 0.250000 0.600000 Ba
0.250000 0.250000 0.800000 Ba
0.250000 0.500000 0.000000 Ba
0.250000 0.500000 0.200000 Ba
0.250000 0.500000 0.400000 Ba
0.250000 0.500000 0.600000 Ba
0.250000 0.500000 0.800000 Ba
0.250000 0.750000 0.000000 Ba
0.250000 0.750000 0.200000 Ba
0.250000 0.750000 0.400000 Ba
0.250000 0.750000 0.600000 Ba
0.250000 0.750000 0.800000 Ba
0.500000 0.000000 0.000000 Ba
0.500000 0.000000 0.200000 Ba
0.500000 0.000000 0.400000 Ba
0.500000 0.000000 0.600000 Ba
0.500000 0.000000 0.800000 Ba
0.500000 0.250000 1.000000 Ba
0.500000 0.250000 0.200000 Ba
0.500000 0.250000 0.400000 Ba
0.500000 0.250000 0.600000 Ba
0.500000 0.250000 0.800000 Ba
0.500000 0.500000 0.000000 Ba
0.500000 0.500000 0.200000 Ba
0.500000 0.500000 0.400000 Ba
0.500000 0.500000 0.600000 Ba
0.500000 0.500000 0.800000 Ba
0.500000 0.750000 0.000000 Ba
0.500000 0.750000 0.200000 Ba
0.500000 0.750000 0.400000 Ba
0.500000 0.750000 0.600000 Ba
0.500000 0.750000 0.800000 Ba
0.750000 0.000000 0.000000 Ba
0.750000 0.000000 0.200000 Ba
0.750000 0.000000 0.400000 Ba
0.750000 0.000000 0.600000 Ba
0.750000 0.000000 0.800000 Ba
0.750000 0.250000 0.000000 Ba
0.750000 0.250000 0.200000 Ba
0.750000 0.250000 0.400000 Ba
0.750000 0.250000 0.600000 Ba
0.750000 0.250000 0.800000 Ba
0.750000 0.500000 0.000000 Ba
0.750000 0.500000 0.200000 Ba
0.750000 0.500000 0.400000 Ba
0.750000 0.500000 0.600000 Ba
0.750000 0.500000 0.800000 Ba
0.750000 0.750000 0.000000 Ba
0.750000 0.750000 0.200000 Ba
0.750000 0.750000 0.400000 Ba
0.750000 0.750000 0.600000 Ba
0.750000 0.750000 0.800000 Ba
0.125000 0.125000 0.100000 Ta
0.125000 0.125000 0.300000 Ta
0.125000 0.125000 0.500000 Ta
0.125000 0.125000 0.700000 Ta
0.125000 0.125000 0.900000 Ta
0.125000 0.375000 0.100000 Ta
0.125000 0.375000 0.300000 Ta
0.125000 0.375000 0.500000 Ta
0.125000 0.375000 0.700000 Ta
0.125000 0.375000 0.900000 Ta
0.125000 0.625000 0.100000 Ta
0.125000 0.625000 0.300000 Ta
0.125000 0.625000 0.500000 Ta
0.125000 0.625000 0.700000 Ta
0.125000 0.625000 0.900000 Ta
0.125000 0.875000 0.100000 Ta
0.125000 0.875000 0.300000 Ta
0.125000 0.875000 0.500000 Ta
0.125000 0.875000 0.700000 Ta
0.125000 0.875000 0.900000 Ta
0.375000 0.125000 0.100000 Ta
0.375000 0.125000 0.300000 Ta
0.375000 0.125000 0.500000 Ta
0.375000 0.125000 0.700000 Ta
0.375000 0.125000 0.900000 Ta
0.375000 0.375000 0.100000 Ta
0.375000 0.375000 0.300000 Ta
0.375000 0.375000 0.500000 Ta
0.375000 0.375000 0.700000 Ta
0.375000 0.375000 0.900000 Ta
0.375000 0.625000 0.100000 Ta
0.375000 0.625000 0.300000 Ta
0.375000 0.625000 0.500000 Ta
0.375000 0.625000 0.700000 Ta
0.375000 0.625000 0.900000 Ta
0.375000 0.875000 0.100000 Ta
0.375000 0.875000 0.300000 Ta
0.375000 0.875000 0.500000 Ta
0.375000 0.875000 0.700000 Ta
0.375000 0.875000 0.900000 Ta
0.625000 0.125000 0.100000 Ta
0.625000 0.125000 0.300000 Ta
0.625000 0.125000 0.500000 Ta
0.625000 0.125000 0.700000 Ta
0.625000 0.125000 0.900000 Ta
0.625000 0.375000 0.100000 Ta
0.625000 0.375000 0.300000 Ta
0.625000 0.375000 0.500000 Ta
0.625000 0.375000 0.700000 Ta
0.625000 0.375000 0.900000 Ta
0.625000 0.625000 0.100000 Ta
0.625000 0.625000 0.300000 Ta
0.625000 0.625000 0.500000 Ta
0.625000 0.625000 0.700000 Ta
0.625000 0.625000 0.900000 Ta
0.625000 0.875000 0.100000 Ta
0.625000 0.875000 0.300000 Ta
0.625000 0.875000 0.500000 Ta
0.625000 0.875000 0.700000 Ta
0.625000 0.875000 0.900000 Ta
0.875000 0.125000 0.100000 Ta
0.875000 0.125000 0.300000 Ta
0.875000 0.125000 0.500000 Ta
0.875000 0.125000 0.700000 Ta
0.875000 0.125000 0.900000 Ta
0.875000 0.375000 0.100000 Ta
0.875000 0.375000 0.300000 Ta
0.875000 0.375000 0.500000 Ta
0.875000 0.375000 0.700000 Ta
0.875000 0.375000 0.900000 Ta
0.875000 0.625000 0.100000 Ta
0.875000 0.625000 0.300000 Ta
0.875000 0.625000 0.500000 Ta
0.875000 0.625000 0.700000 Ta
0.875000 0.625000 0.900000 Ta
0.875000 0.875000 0.100000 Ta
0.875000 0.875000 0.300000 Ta
0.875000 0.875000 0.500000 Ta
0.875000 0.875000 0.700000 Ta
0.875000 0.875000 0.900000 Ta
0.125000 0.125000 0.000000 N
0.125000 0.125000 0.200000 N
0.125000 0.125000 0.400000 N
0.125000 0.125000 0.600000 N
0.125000 0.125000 0.800000 N
0.125000 0.375000 0.000000 N
0.125000 0.375000 0.200000 N
0.125000 0.375000 0.400000 N
0.125000 0.375000 0.600000 N
0.125000 0.375000 0.800000 N
0.125000 0.625000 1.000000 N
0.125000 0.625000 0.200000 N
0.125000 0.625000 0.400000 N
0.125000 0.625000 0.600000 N
0.125000 0.625000 0.800000 N
0.125000 0.875000 0.000000 N
0.125000 0.875000 0.200000 N
0.125000 0.875000 0.400000 N
0.125000 0.875000 0.600000 N
0.125000 0.875000 0.800000 N
0.375000 0.125000 0.000000 N
0.375000 0.125000 0.200000 N
0.375000 0.125000 0.400000 N
0.375000 0.125000 0.600000 N
0.375000 0.125000 0.800000 N
0.375000 0.375000 0.000000 N
0.375000 0.375000 0.200000 N
0.375000 0.375000 0.400000 N
0.375000 0.375000 0.600000 N
0.375000 0.375000 0.800000 N
0.375000 0.625000 0.000000 N
0.375000 0.625000 0.200000 N
0.375000 0.625000 0.400000 N
0.375000 0.625000 0.600000 N
0.375000 0.625000 0.800000 N
0.375000 0.875000 0.000000 N
0.375000 0.875000 0.200000 N
0.375000 0.875000 0.400000 N
0.375000 0.875000 0.600000 N
0.375000 0.875000 0.800000 N
0.625000 0.125000 1.000000 N
0.625000 0.125000 0.200000 N
0.625000 0.125000 0.400000 N
0.625000 0.125000 0.600000 N
0.625000 0.125000 0.800000 N
0.625000 0.375000 1.000000 N
0.625000 0.375000 0.200000 N
0.625000 0.375000 0.400000 N
0.625000 0.375000 0.600000 N
0.625000 0.375000 0.800000 N
0.625000 0.625000 1.000000 N
0.625000 0.625000 0.200000 N
0.625000 0.625000 0.400000 N
0.625000 0.625000 0.600000 N
0.625000 0.625000 0.800000 N
0.625000 0.875000 1.000000 N
0.625000 0.875000 0.200000 N
0.625000 0.875000 0.400000 N
0.625000 0.875000 0.600000 N
0.625000 0.875000 0.800000 N
0.875000 0.125000 0.000000 N
0.875000 0.125000 0.200000 N
0.875000 0.125000 0.400000 N
0.875000 0.125000 0.600000 N
0.875000 0.125000 0.800000 N
0.875000 0.375000 0.000000 N
0.875000 0.375000 0.200000 N
0.875000 0.375000 0.400000 N
0.875000 0.375000 0.600000 N
0.875000 0.375000 0.800000 N
0.875000 0.625000 1.000000 N
0.875000 0.625000 0.200000 N
0.875000 0.625000 0.400000 N
0.875000 0.625000 0.600000 N
0.875000 0.625000 0.800000 N
0.875000 0.875000 1.000000 N
0.875000 0.875000 0.200000 N
0.875000 0.875000 0.400000 N
0.875000 0.875000 0.600000 N
0.875000 0.875000 0.800000 N
1.000000 0.125000 0.100000 O
1.000000 0.125000 0.300000 O
1.000000 0.125000 0.500000 O
1.000000 0.125000 0.700000 O
1.000000 0.125000 0.900000 O
1.000000 0.375000 0.100000 O
1.000000 0.375000 0.300000 O
1.000000 0.375000 0.500000 O
1.000000 0.375000 0.700000 O
1.000000 0.375000 0.900000 O
0.000000 0.625000 0.100000 O
0.000000 0.625000 0.300000 O
0.000000 0.625000 0.500000 O
0.000000 0.625000 0.700000 O
0.000000 0.625000 0.900000 O
0.000000 0.875000 0.100000 O
0.000000 0.875000 0.300000 O
0.000000 0.875000 0.500000 O
0.000000 0.875000 0.700000 O
0.000000 0.875000 0.900000 O
0.250000 0.125000 0.100000 O
0.250000 0.125000 0.300000 O
0.250000 0.125000 0.500000 O
0.250000 0.125000 0.700000 O
0.250000 0.125000 0.900000 O
0.250000 0.375000 0.100000 O
0.250000 0.375000 0.300000 O
0.250000 0.375000 0.500000 O
0.250000 0.375000 0.700000 O
0.250000 0.375000 0.900000 O
0.250000 0.625000 0.100000 O
0.250000 0.625000 0.300000 O
0.250000 0.625000 0.500000 O
0.250000 0.625000 0.700000 O
0.250000 0.625000 0.900000 O
0.250000 0.875000 0.100000 O
0.250000 0.875000 0.300000 O
0.250000 0.875000 0.500000 O
0.250000 0.875000 0.700000 O
0.250000 0.875000 0.900000 O
0.500000 0.125000 0.100000 O
0.500000 0.125000 0.300000 O
0.500000 0.125000 0.500000 O
0.500000 0.125000 0.700000 O
0.500000 0.125000 0.900000 O
0.500000 0.375000 0.100000 O
0.500000 0.375000 0.300000 O
0.500000 0.375000 0.500000 O
0.500000 0.375000 0.700000 O
0.500000 0.375000 0.900000 O
0.500000 0.625000 0.100000 O
0.500000 0.625000 0.300000 O
0.500000 0.625000 0.500000 O
0.500000 0.625000 0.700000 O
0.500000 0.625000 0.900000 O
0.500000 0.875000 0.100000 O
0.500000 0.875000 0.300000 O
0.500000 0.875000 0.500000 O
0.500000 0.875000 0.700000 O
0.500000 0.875000 0.900000 O
0.750000 0.125000 0.100000 O
0.750000 0.125000 0.300000 O
0.750000 0.125000 0.500000 O
0.750000 0.125000 0.700000 O
0.750000 0.125000 0.900000 O
0.750000 0.375000 0.100000 O
0.750000 0.375000 0.300000 O
0.750000 0.375000 0.500000 O
0.750000 0.375000 0.700000 O
0.750000 0.375000 0.900000 O
0.750000 0.625000 0.100000 O
0.750000 0.625000 0.300000 O
0.750000 0.625000 0.500000 O
0.750000 0.625000 0.700000 O
0.750000 0.625000 0.900000 O
0.750000 0.875000 0.100000 O
0.750000 0.875000 0.300000 O
0.750000 0.875000 0.500000 O
0.750000 0.875000 0.700000 O
0.750000 0.875000 0.900000 O
0.125000 0.000000 0.100000 O
0.125000 0.000000 0.300000 O
0.125000 0.000000 0.500000 O
0.125000 0.000000 0.700000 O
0.125000 0.000000 0.900000 O
0.125000 0.250000 0.100000 O
0.125000 0.250000 0.300000 O
0.125000 0.250000 0.500000 O
0.125000 0.250000 0.700000 O
0.125000 0.250000 0.900000 O
0.125000 0.500000 0.100000 O
0.125000 0.500000 0.300000 O
0.125000 0.500000 0.500000 O
0.125000 0.500000 0.700000 O
0.125000 0.500000 0.900000 O
0.125000 0.750000 0.100000 O
0.125000 0.750000 0.300000 O
0.125000 0.750000 0.500000 O
0.125000 0.750000 0.700000 O
0.125000 0.750000 0.900000 O
0.375000 0.000000 0.100000 O
0.375000 0.000000 0.300000 O
0.375000 0.000000 0.500000 O
0.375000 0.000000 0.700000 O
0.375000 0.000000 0.900000 O
0.375000 0.250000 0.100000 O
0.375000 0.250000 0.300000 O
0.375000 0.250000 0.500000 O
0.375000 0.250000 0.700000 O
0.375000 0.250000 0.900000 O
0.375000 0.500000 0.100000 O
0.375000 0.500000 0.300000 O
0.375000 0.500000 0.500000 O
0.375000 0.500000 0.700000 O
0.375000 0.500000 0.900000 O
0.375000 0.750000 0.100000 O
0.375000 0.750000 0.300000 O
0.375000 0.750000 0.500000 O
0.375000 0.750000 0.700000 O
0.375000 0.750000 0.900000 O
0.625000 0.000000 0.100000 O
0.625000 0.000000 0.300000 O
0.625000 0.000000 0.500000 O
0.625000 0.000000 0.700000 O
0.625000 0.000000 0.900000 O
0.625000 0.250000 0.100000 O
0.625000 0.250000 0.300000 O
0.625000 0.250000 0.500000 O
0.625000 0.250000 0.700000 O
0.625000 0.250000 0.900000 O
0.625000 0.500000 0.100000 O
0.625000 0.500000 0.300000 O
0.625000 0.500000 0.500000 O
0.625000 0.500000 0.700000 O
0.625000 0.500000 0.900000 O
0.625000 0.750000 0.100000 O
0.625000 0.750000 0.300000 O
0.625000 0.750000 0.500000 O
0.625000 0.750000 0.700000 O
0.625000 0.750000 0.900000 O
0.875000 0.000000 0.100000 O
0.875000 0.000000 0.300000 O
0.875000 0.000000 0.500000 O
0.875000 0.000000 0.700000 O
0.875000 0.000000 0.900000 O
0.875000 0.250000 0.100000 O
0.875000 0.250000 0.300000 O
0.875000 0.250000 0.500000 O
0.875000 0.250000 0.700000 O
0.875000 0.250000 0.900000 O
0.875000 0.500000 0.100000 O
0.875000 0.500000 0.300000 O
0.875000 0.500000 0.500000 O
0.875000 0.500000 0.700000 O
0.875000 0.500000 0.900000 O
0.875000 0.750000 0.100000 O
0.875000 0.750000 0.300000 O
0.875000 0.750000 0.500000 O
0.875000 0.750000 0.700000 O
0.875000 0.750000 0.900000 O
