Sr1 Ta1 N1 O2
1.0
4.049561 0.000000 0.000000
-0.000000 4.049561 0.000000
0.000000 0.000000 4.107669
Sr Ta N O
1 1 1 2
direct
0.000000 0.000000 0.000000 Sr
0.500000 0.500000 0.500000 Ta
0.500000 0.500000 0.000000 N
0.500000 0.000000 0.500000 O
0.000000 0.500000 0.500000 O
