Ba120 Ta120 N120 O240
1.0
23.936910 0.000000 0.000000
-0.000000 16.497668 0.000000
0.000000 0.000000 20.622085
Ba Ta N O
120 120 120 240
direct
0.250000 0.375000 1.000000 Ba
0.250000 0.375000 0.200000 Ba
0.250000 0.375000 0.400000 Ba
0.250000 0.375000 0.600000 Ba
0.250000 0.375000 0.800000 Ba
0.416667 0.625000 1.000000 Ba
0.416667 0.625000 0.200000 Ba
0.416667 0.625000 0.400000 Ba
0.416667 0.625000 0.600000 Ba
0.416667 0.625000 0.800000 Ba
0.250000 0.875000 0.000000 Ba
0.250000 0.875000 0.200000 Ba
0.250000 0.875000 0.400000 Ba
0.250000 0.875000 0.600000 Ba
0.250000 0.875000 0.800000 Ba
0.416667 0.125000 0.000000 Ba
0.416667 0.125000 0.200000 Ba
0.416667 0.125000 0.400000 Ba
0.416667 0.125000 0.600000 Ba
0.416667 0.125000 0.800000 Ba
0.583333 0.375000 0.000000 Ba
0.583333 0.375000 0.200000 Ba
0.583333 0.375000 0.400000 Ba
0.583333 0.375000 0.600000 Ba
0.583333 0.375000 0.800000 Ba
0.750000 0.625000 1.000000 Ba
0.750000 0.625000 0.200000 Ba
0.750000 0.625000 0.400000 Ba
0.750000 0.625000 0.600000 Ba
0.750000 0.625000 0.800000 Ba
0.583333 0.875000 1.000000 Ba
0.583333 0.875000 0.200000 Ba
0.583333 0.875000 0.400000 Ba
0.583333 0.875000 0.600000 Ba
0.583333 0.875000 0.800000 Ba
0.750000 0.125000 1.000000 Ba
0.750000 0.125000 0.200000 Ba
0.750000 0.125000 0.400000 Ba
0.750000 0.125000 0.600000 Ba
0.750000 0.125000 0.800000 Ba
0.916667 0.375000 1.000000 Ba
0.916667 0.375000 0.200000 Ba
0.916667 0.375000 0.400000 Ba
0.916667 0.375000 0.600000 Ba
0.916667 0.375000 0.800000 Ba
0.083333 0.625000 1.000000 Ba
0.083333 0.625000 0.200000 Ba
0.083333 0.625000 0.400000 Ba
0.083333 0.625000 0.600000 Ba
0.083333 0.625000 0.800000 Ba
0.916667 0.875000 1.000000 Ba
0.916667 0.875000 0.200000 Ba
0.916667 0.875000 0.400000 Ba
0.916667 0.875000 0.600000 Ba
0.916667 0.875000 0.800000 Ba
0.083333 0.125000 0.000000 Ba
0.083333 0.125000 0.200000 Ba
0.083333 0.125000 0.400000 Ba
0.083333 0.125000 0.600000 Ba
0.083333 0.125000 0.800000 Ba
0.083333 0.375000 0.200000 Ba
0.083333 0.375000 0.400000 Ba
0.083333 0.375000 0.600000 Ba
0.083333 0.375000 0.800000 Ba
0.083333 0.375000 0.000000 Ba
0.250000 0.625000 0.200000 Ba
0.250000 0.625000 0.400000 Ba
0.250000 0.625000 0.600000 Ba
0.250000 0.625000 0.800000 Ba
0.250000 0.625000 0.000000 Ba
0.083333 0.875000 0.200000 Ba
0.083333 0.875000 0.400000 Ba
0.083333 0.875000 0.600000 Ba
0.083333 0.875000 0.800000 Ba
0.083333 0.875000 0.000000 Ba
0.250000 0.125000 0.200000 Ba
0.250000 0.125000 0.400000 Ba
0.250000 0.125000 0.600000 Ba
0.250000 0.125000 0.800000 Ba
0.250000 0.125000 0.000000 Ba
0.416667 0.375000 0.200000 Ba
0.416667 0.375000 0.400000 Ba
0.416667 0.375000 0.600000 Ba
0.416667 0.375000 0.800000 Ba
0.416667 0.375000 0.000000 Ba
0.583333 0.625000 0.200000 Ba
0.583333 0.625000 0.400000 Ba
0.583333 0.625000 0.600000 Ba
0.583333 0.625000 0.800000 Ba
0.583333 0.625000 0.000000 Ba
0.416667 0.875000 0.200000 Ba
0.416667 0.875000 0.400000 Ba
0.416667 0.875000 0.600000 Ba
0.416667 0.875000 0.800000 Ba
0.416667 0.875000 0.000000 Ba
0.583333 0.125000 0.200000 Ba
0.583333 0.125000 0.400000 Ba
0.583333 0.125000 0.600000 Ba
0.583333 0.125000 0.800000 Ba
0.583333 0.125000 0.000000 Ba
0.750000 0.375000 0.200000 Ba
0.750000 0.375000 0.400000 Ba
0.750000 0.375000 0.600000 Ba
0.750000 0.375000 0.800000 Ba
0.750000 0.375000 0.000000 Ba
0.916667 0.625000 0.200000 Ba
0.916667 0.625000 0.400000 Ba
0.916667 0.625000 0.600000 Ba
0.916667 0.625000 0.800000 Ba
0.916667 0.625000 0.000000 Ba
0.750000 0.875000 0.200000 Ba
0.750000 0.875000 0.400000 Ba
0.750000 0.875000 0.600000 Ba
0.750000 0.875000 0.800000 Ba
0.750000 0.875000 0.000000 Ba
0.916667 0.125000 0.200000 Ba
0.916667 0.125000 0.400000 Ba
0.916667 0.125000 0.600000 Ba
0.916667 0.125000 0.800000 Ba
0.916667 0.125000 0.000000 Ba
0.166667 0.250000 0.100000 Ta
0.166667 0.250000 0.300000 Ta
0.166667 0.250000 0.500000 Ta
0.166667 0.250000 0.700000 Ta
0.166667 0.250000 0.900000 Ta
0.333333 0.500000 0.100000 Ta
0.333333 0.500000 0.300000 Ta
0.333333 0.500000 0.500000 Ta
0.333333 0.500000 0.700000 Ta
0.333333 0.500000 0.900000 Ta
0.166667 0.750000 0.100000 Ta
0.166667 0.750000 0.300000 Ta
0.166667 0.750000 0.500000 Ta
0.166667 0.750000 0.700000 Ta
0.166667 0.750000 0.900000 Ta
0.333333 0.000000 0.100000 Ta
0.333333 0.000000 0.300000 Ta
0.333333 0.000000 0.500000 Ta
0.333333 0.000000 0.700000 Ta
0.333333 0.000000 0.900000 Ta
0.500000 0.250000 0.100000 Ta
0.500000 0.250000 0.300000 Ta
0.500000 0.250000 0.500000 Ta
0.500000 0.250000 0.700000 Ta
0.500000 0.250000 0.900000 Ta
0.666667 0.500000 0.100000 Ta
0.666667 0.500000 0.300000 Ta
0.666667 0.500000 0.500000 Ta
0.666667 0.500000 0.700000 Ta
0.666667 0.500000 0.900000 Ta
0.500000 0.750000 0.100000 Ta
0.500000 0.750000 0.300000 Ta
0.500000 0.750000 0.500000 Ta
0.500000 0.750000 0.700000 Ta
0.500000 0.750000 0.900000 Ta
0.666667 0.000000 0.100000 Ta
0.666667 0.000000 0.300000 Ta
0.666667 0.000000 0.500000 Ta
0.666667 0.000000 0.700000 Ta
0.666667 0.000000 0.900000 Ta
0.833333 0.250000 0.100000 Ta
0.833333 0.250000 0.300000 Ta
0.833333 0.250000 0.500000 Ta
0.833333 0.250000 0.700000 Ta
0.833333 0.250000 0.900000 Ta
1.000000 0.500000 0.100000 Ta
1.000000 0.500000 0.300000 Ta
1.000000 0.500000 0.500000 Ta
1.000000 0.500000 0.700000 Ta
1.000000 0.500000 0.900000 Ta
0.833333 0.750000 0.100000 Ta
0.833333 0.750000 0.300000 Ta
0.833333 0.750000 0.500000 Ta
0.833333 0.750000 0.700000 Ta
0.833333 0.750000 0.900000 Ta
1.000000 0.000000 0.100000 Ta
1.000000 0.000000 0.300000 Ta
1.000000 0.000000 0.500000 Ta
1.000000 0.000000 0.700000 Ta
1.000000 0.000000 0.900000 Ta
0.166667 0.500000 0.100000 Ta
0.166667 0.500000 0.300000 Ta
0.166667 0.500000 0.500000 Ta
0.166667 0.500000 0.700000 Ta
0.166667 0.500000 0.900000 Ta
0.333333 0.750000 0.100000 Ta
0.333333 0.750000 0.300000 Ta
0.333333 0.750000 0.500000 Ta
0.333333 0.750000 0.700000 Ta
0.333333 0.750000 0.900000 Ta
0.166667 0.000000 0.100000 Ta
0.166667 0.000000 0.300000 Ta
0.166667 0.000000 0.500000 Ta
0.166667 0.000000 0.700000 Ta
0.166667 0.000000 0.900000 Ta
0.333333 0.250000 0.100000 Ta
0.333333 0.250000 0.300000 Ta
0.333333 0.250000 0.500000 Ta
0.333333 0.250000 0.700000 Ta
0.333333 0.250000 0.900000 Ta
0.500000 0.500000 0.100000 Ta
0.500000 0.500000 0.300000 Ta
0.500000 0.500000 0.500000 Ta
0.500000 0.500000 0.700000 Ta
0.500000 0.500000 0.900000 Ta
0.666667 0.750000 0.100000 Ta
0.666667 0.750000 0.300000 Ta
0.666667 0.750000 0.500000 Ta
0.666667 0.750000 0.700000 Ta
0.666667 0.750000 0.900000 Ta
0.500000 0.000000 0.100000 Ta
0.500000 0.000000 0.300000 Ta
0.500000 0.000000 0.500000 Ta
0.500000 0.000000 0.700000 Ta
0.500000 0.000000 0.900000 Ta
0.666667 0.250000 0.100000 Ta
0.666667 0.250000 0.300000 Ta
0.666667 0.250000 0.500000 Ta
0.666667 0.250000 0.700000 Ta
0.666667 0.250000 0.900000 Ta
0.833333 0.500000 0.100000 Ta
0.833333 0.500000 0.300000 Ta
0.833333 0.500000 0.500000 Ta
0.833333 0.500000 0.700000 Ta
0.833333 0.500000 0.900000 Ta
0.000000 0.750000 0.100000 Ta
0.000000 0.750000 0.300000 Ta
0.000000 0.750000 0.500000 Ta
0.000000 0.750000 0.700000 Ta
0.000000 0.750000 0.900000 Ta
0.833333 0.000000 0.100000 Ta
0.833333 0.000000 0.300000 Ta
0.833333 0.000000 0.500000 Ta
0.833333 0.000000 0.700000 Ta
0.833333 0.000000 0.900000 Ta
1.000000 0.250000 0.100000 Ta
1.000000 0.250000 0.300000 Ta
1.000000 0.250000 0.500000 Ta
1.000000 0.250000 0.700000 Ta
1.000000 0.250000 0.900000 Ta
0.250000 0.500000 0.100000 N
0.250000 0.500000 0.300000 N
0.250000 0.500000 0.500000 N
0.250000 0.500000 0.700000 N
0.250000 0.500000 0.900000 N
0.416667 0.750000 0.100000 N
0.416667 0.750000 0.300000 N
0.416667 0.750000 0.500000 N
0.416667 0.750000 0.700000 N
0.416667 0.750000 0.900000 N
0.250000 0.000000 0.100000 N
0.250000 0.000000 0.300000 N
0.250000 0.000000 0.500000 N
0.250000 0.000000 0.700000 N
0.250000 0.000000 0.900000 N
0.416667 0.250000 0.100000 N
0.416667 0.250000 0.300000 N
0.416667 0.250000 0.500000 N
0.416667 0.250000 0.700000 N
0.416667 0.250000 0.900000 N
0.583333 0.500000 0.100000 N
0.583333 0.500000 0.300000 N
0.583333 0.500000 0.500000 N
0.583333 0.500000 0.700000 N
0.583333 0.500000 0.900000 N
0.750000 0.750000 0.100000 N
0.750000 0.750000 0.300000 N
0.750000 0.750000 0.500000 N
0.750000 0.750000 0.700000 N
0.750000 0.750000 0.900000 N
0.583333 0.000000 0.100000 N
0.583333 0.000000 0.300000 N
0.583333 0.000000 0.500000 N
0.583333 0.000000 0.700000 N
0.583333 0.000000 0.900000 N
0.750000 0.250000 0.100000 N
0.750000 0.250000 0.300000 N
0.750000 0.250000 0.500000 N
0.750000 0.250000 0.700000 N
0.750000 0.250000 0.900000 N
0.916667 0.500000 0.100000 N
0.916667 0.500000 0.300000 N
0.916667 0.500000 0.500000 N
0.916667 0.500000 0.700000 N
0.916667 0.500000 0.900000 N
0.083333 0.750000 0.100000 N
0.083333 0.750000 0.300000 N
0.083333 0.750000 0.500000 N
0.083333 0.750000 0.700000 N
0.083333 0.750000 0.900000 N
0.916667 0.000000 0.100000 N
0.916667 0.000000 0.300000 N
0.916667 0.000000 0.500000 N
0.916667 0.000000 0.700000 N
0.916667 0.000000 0.900000 N
0.083333 0.250000 0.100000 N
0.083333 0.250000 0.300000 N
0.083333 0.250000 0.500000 N
0.083333 0.250000 0.700000 N
0.083333 0.250000 0.900000 N
0.000000 0.500000 0.000000 N
0.000000 0.500000 0.200000 N
0.000000 0.500000 0.400000 N
0.000000 0.500000 0.600000 N
0.000000 0.500000 0.800000 N
0.166667 0.750000 0.000000 N
0.166667 0.750000 0.200000 N
0.166667 0.750000 0.400000 N
0.166667 0.750000 0.600000 N
0.166667 0.750000 0.800000 N
0.000000 0.000000 0.000000 N
0.000000 0.000000 0.200000 N
0.000000 0.000000 0.400000 N
0.000000 0.000000 0.600000 N
0.000000 0.000000 0.800000 N
0.166667 0.250000 0.000000 N
0.166667 0.250000 0.200000 N
0.166667 0.250000 0.400000 N
0.166667 0.250000 0.600000 N
0.166667 0.250000 0.800000 N
0.333333 0.500000 0.000000 N
0.333333 0.500000 0.200000 N
0.333333 0.500000 0.400000 N
0.333333 0.500000 0.600000 N
0.333333 0.500000 0.800000 N
0.500000 0.750000 1.000000 N
0.500000 0.750000 0.200000 N
0.500000 0.750000 0.400000 N
0.500000 0.750000 0.600000 N
0.500000 0.750000 0.800000 N
0.333333 0.000000 1.000000 N
0.333333 0.000000 0.200000 N
0.333333 0.000000 0.400000 N
0.333333 0.000000 0.600000 N
0.333333 0.000000 0.800000 N
0.500000 0.250000 1.000000 N
0.500000 0.250000 0.200000 N
0.500000 0.250000 0.400000 N
0.500000 0.250000 0.600000 N
0.500000 0.250000 0.800000 N
0.666667 0.500000 0.000000 N
0.666667 0.500000 0.200000 N
0.666667 0.500000 0.400000 N
0.666667 0.500000 0.600000 N
0.666667 0.500000 0.800000 N
0.833333 0.750000 1.000000 N
0.833333 0.750000 0.200000 N
0.833333 0.750000 0.400000 N
0.833333 0.750000 0.600000 N
0.833333 0.750000 0.800000 N
0.666667 0.000000 1.000000 N
0.666667 0.000000 0.200000 N
0.666667 0.000000 0.400000 N
0.666667 0.000000 0.600000 N
0.666667 0.000000 0.800000 N
0.833333 0.250000 1.000000 N
0.833333 0.250000 0.200000 N
0.833333 0.250000 0.400000 N
0.833333 0.250000 0.600000 N
0.833333 0.250000 0.800000 N
0.083333 0.500000 0.100000 O
0.083333 0.500000 0.300000 O
0.083333 0.500000 0.500000 O
0.083333 0.500000 0.700000 O
0.083333 0.500000 0.900000 O
0.250000 0.750000 0.100000 O
0.250000 0.750000 0.300000 O
0.250000 0.750000 0.500000 O
0.250000 0.750000 0.700000 O
0.250000 0.750000 0.900000 O
0.083333 0.000000 0.100000 O
0.083333 0.000000 0.300000 O
0.083333 0.000000 0.500000 O
0.083333 0.000000 0.700000 O
0.083333 0.000000 0.900000 O
0.250000 0.250000 0.100000 O
0.250000 0.250000 0.300000 O
0.250000 0.250000 0.500000 O
0.250000 0.250000 0.700000 O
0.250000 0.250000 0.900000 O
0.416667 0.500000 0.100000 O
0.416667 0.500000 0.300000 O
0.416667 0.500000 0.500000 O
0.416667 0.500000 0.700000 O
0.416667 0.500000 0.900000 O
0.583333 0.750000 0.100000 O
0.583333 0.750000 0.300000 O
0.583333 0.750000 0.500000 O
0.583333 0.750000 0.700000 O
0.583333 0.750000 0.900000 O
0.416667 0.000000 0.100000 O
0.416667 0.000000 0.300000 O
0.416667 0.000000 0.500000 O
0.416667 0.000000 0.700000 O
0.416667 0.000000 0.900000 O
0.583333 0.250000 0.100000 O
0.583333 0.250000 0.300000 O
0.583333 0.250000 0.500000 O
0.583333 0.250000 0.700000 O
0.583333 0.250000 0.900000 O
0.750000 0.500000 0.100000 O
0.750000 0.500000 0.300000 O
0.750000 0.500000 0.500000 O
0.750000 0.500000 0.700000 O
0.750000 0.500000 0.900000 O
0.916667 0.750000 0.100000 O
0.916667 0.750000 0.300000 O
0.916667 0.750000 0.500000 O
0.916667 0.750000 0.700000 O
0.916667 0.750000 0.900000 O
0.750000 0.000000 0.100000 O
0.750000 0.000000 0.300000 O
0.750000 0.000000 0.500000 O
0.750000 0.000000 0.700000 O
0.750000 0.000000 0.900000 O
0.916667 0.250000 0.100000 O
0.916667 0.250000 0.300000 O
0.916667 0.250000 0.500000 O
0.916667 0.250000 0.700000 O
0.916667 0.250000 0.900000 O
0.166667 0.625000 0.100000 O
0.166667 0.625000 0.300000 O
0.166667 0.625000 0.500000 O
0.166667 0.625000 0.700000 O
0.166667 0.625000 0.900000 O
0.333333 0.875000 0.100000 O
0.333333 0.875000 0.300000 O
0.333333 0.875000 0.500000 O
0.333333 0.875000 0.700000 O
0.333333 0.875000 0.900000 O
0.166667 0.125000 0.100000 O
0.166667 0.125000 0.300000 O
0.166667 0.125000 0.500000 O
0.166667 0.125000 0.700000 O
0.166667 0.125000 0.900000 O
0.333333 0.375000 0.100000 O
0.333333 0.375000 0.300000 O
0.333333 0.375000 0.500000 O
0.333333 0.375000 0.700000 O
0.333333 0.375000 0.900000 O
0.500000 0.625000 0.100000 O
0.500000 0.625000 0.300000 O
0.500000 0.625000 0.500000 O
0.500000 0.625000 0.700000 O
0.500000 0.625000 0.900000 O
0.666667 0.875000 0.100000 O
0.666667 0.875000 0.300000 O
0.666667 0.875000 0.500000 O
0.666667 0.875000 0.700000 O
0.666667 0.875000 0.900000 O
0.500000 0.125000 0.100000 O
0.500000 0.125000 0.300000 O
0.500000 0.125000 0.500000 O
0.500000 0.125000 0.700000 O
0.500000 0.125000 0.900000 O
0.666667 0.375000 0.100000 O
0.666667 0.375000 0.300000 O
0.666667 0.375000 0.500000 O
0.666667 0.375000 0.700000 O
0.666667 0.375000 0.900000 O
0.833333 0.625000 0.100000 O
0.833333 0.625000 0.300000 O
0.833333 0.625000 0.500000 O
0.833333 0.625000 0.700000 O
0.833333 0.625000 0.900000 O
0.000000 0.875000 0.100000 O
0.000000 0.875000 0.300000 O
0.000000 0.875000 0.500000 O
0.000000 0.875000 0.700000 O
0.000000 0.875000 0.900000 O
0.833333 0.125000 0.100000 O
0.833333 0.125000 0.300000 O
0.833333 0.125000 0.500000 O
0.833333 0.125000 0.700000 O
0.833333 0.125000 0.900000 O
0.000000 0.375000 0.100000 O
0.000000 0.375000 0.300000 O
0.000000 0.375000 0.500000 O
0.000000 0.375000 0.700000 O
0.000000 0.375000 0.900000 O
0.166667 0.375000 0.100000 O
0.166667 0.375000 0.300000 O
0.166667 0.375000 0.500000 O
0.166667 0.375000 0.700000 O
0.166667 0.375000 0.900000 O
0.333333 0.625000 0.100000 O
0.333333 0.625000 0.300000 O
0.333333 0.625000 0.500000 O
0.333333 0.625000 0.700000 O
0.333333 0.625000 0.900000 O
0.166667 0.875000 0.100000 O
0.166667 0.875000 0.300000 O
0.166667 0.875000 0.500000 O
0.166667 0.875000 0.700000 O
0.166667 0.875000 0.900000 O
0.333333 0.125000 0.100000 O
0.333333 0.125000 0.300000 O
0.333333 0.125000 0.500000 O
0.333333 0.125000 0.700000 O
0.333333 0.125000 0.900000 O
0.500000 0.375000 0.100000 O
0.500000 0.375000 0.300000 O
0.500000 0.375000 0.500000 O
0.500000 0.375000 0.700000 O
0.500000 0.375000 0.900000 O
0.666667 0.625000 0.100000 O
0.666667 0.625000 0.300000 O
0.666667 0.625000 0.500000 O
0.666667 0.625000 0.700000 O
0.666667 0.625000 0.900000 O
0.500000 0.875000 0.100000 O
0.500000 0.875000 0.300000 O
0.500000 0.875000 0.500000 O
0.500000 0.875000 0.700000 O
0.500000 0.875000 0.900000 O
0.666667 0.125000 0.100000 O
0.666667 0.125000 0.300000 O
0.666667 0.125000 0.500000 O
0.666667 0.125000 0.700000 O
0.666667 0.125000 0.900000 O
0.833333 0.375000 0.100000 O
0.833333 0.375000 0.300000 O
0.833333 0.375000 0.500000 O
0.833333 0.375000 0.700000 O
0.833333 0.375000 0.900000 O
0.000000 0.625000 0.100000 O
0.000000 0.625000 0.300000 O
0.000000 0.625000 0.500000 O
0.000000 0.625000 0.700000 O
0.000000 0.625000 0.900000 O
0.833333 0.875000 0.100000 O
0.833333 0.875000 0.300000 O
0.833333 0.875000 0.500000 O
0.833333 0.875000 0.700000 O
0.833333 0.875000 0.900000 O
0.000000 0.125000 0.100000 O
0.000000 0.125000 0.300000 O
0.000000 0.125000 0.500000 O
0.000000 0.125000 0.700000 O
0.000000 0.125000 0.900000 O
0.166667 0.500000 1.000000 O
0.166667 0.500000 0.200000 O
0.166667 0.500000 0.400000 O
0.166667 0.500000 0.600000 O
0.166667 0.500000 0.800000 O
0.333333 0.750000 1.000000 O
0.333333 0.750000 0.200000 O
0.333333 0.750000 0.400000 O
0.333333 0.750000 0.600000 O
0.333333 0.750000 0.800000 O
0.166667 0.000000 0.000000 O
0.166667 0.000000 0.200000 O
0.166667 0.000000 0.400000 O
0.166667 0.000000 0.600000 O
0.166667 0.000000 0.800000 O
0.333333 0.250000 1.000000 O
0.333333 0.250000 0.200000 O
0.333333 0.250000 0.400000 O
0.333333 0.250000 0.600000 O
0.333333 0.250000 0.800000 O
0.500000 0.500000 1.000000 O
0.500000 0.500000 0.200000 O
0.500000 0.500000 0.400000 O
0.500000 0.500000 0.600000 O
0.500000 0.500000 0.800000 O
0.666667 0.750000 1.000000 O
0.666667 0.750000 0.200000 O
0.666667 0.750000 0.400000 O
0.666667 0.750000 0.600000 O
0.666667 0.750000 0.800000 O
0.500000 0.000000 1.000000 O
0.500000 0.000000 0.200000 O
0.500000 0.000000 0.400000 O
0.500000 0.000000 0.600000 O
0.500000 0.000000 0.800000 O
0.666667 0.250000 1.000000 O
0.666667 0.250000 0.200000 O
0.666667 0.250000 0.400000 O
0.666667 0.250000 0.600000 O
0.666667 0.250000 0.800000 O
0.833333 0.500000 0.000000 O
0.833333 0.500000 0.200000 O
0.833333 0.500000 0.400000 O
0.833333 0.500000 0.600000 O
0.833333 0.500000 0.800000 O
0.000000 0.750000 1.000000 O
0.000000 0.750000 0.200000 O
0.000000 0.750000 0.400000 O
0.000000 0.750000 0.600000 O
0.000000 0.750000 0.800000 O
0.833333 0.000000 1.000000 O
0.833333 0.000000 0.200000 O
0.833333 0.000000 0.400000 O
0.833333 0.000000 0.600000 O
0.833333 0.000000 0.800000 O
0.000000 0.250000 1.000000 O
0.000000 0.250000 0.200000 O
0.000000 0.250000 0.400000 O
0.000000 0.250000 0.600000 O
0.000000 0.250000 0.800000 O
