Sr2 Ta2 N2 O4
1.0
4.049561 0.000000 0.000000
-0.000000 5.768180 0.000000
0.000000 0.000000 5.768180
Sr Ta N O
2 2 2 4
direct
0.000000 0.750000 0.750000 Sr
0.000000 0.250000 0.250000 Sr
0.500000 0.750000 0.250000 Ta
0.500000 0.250000 0.750000 Ta
0.500000 0.500000 0.000000 N
0.500000 0.000000 0.000000 N
0.500000 0.000000 0.500000 O
0.500000 0.500000 0.500000 O
0.000000 0.750000 0.250000 O
0.000000 0.250000 0.750000 O
