Ba120 Ta120 N120 O240
1.0
        8.2488298416         0.0000000000         0.0000000000
        0.0000000000         7.9789900780         0.0000000000
        0.0000000000         0.0000000000         8.2488298416
   Ba   Ta    N    O
    8    8    8   16
Cartesian
     3.093311436         3.160769619         7.217728570
     7.217728078         3.160785789         3.093312174
     7.217728078         7.150262042         7.217728570
     3.093311436         7.150254908         3.093312174
     7.217728078         3.160769619         7.217728570
     3.093311436         3.160785789         3.093312174
     3.093311436         7.150262042         7.217728570
     7.217728078         7.150254908         3.093312174
     5.155519634         5.155523559         1.031105328
     1.031105697         1.166023169         1.031105328
     1.031105574         5.155511669         5.155521109
     5.155519634         1.166028995         5.155521109
     5.155519634         1.166023169         1.031105328
     1.031105574         5.155523559         1.031105328
     1.031105574         1.166028995         5.155521109
     5.155519634         5.155511669         5.155521109
     5.155519634         3.160777704         1.031105328
     1.031105574         3.160778179         5.155521109
     1.031105574         7.150258237         1.031105328
     5.155519634         7.150270127         5.155521109
     5.155519634         5.155528790         7.217728570
     1.031105574         5.155520705         3.093312174
     1.031105574         1.166021267         7.217728570
     5.155519634         1.166025309         3.093312174
     5.155519634         7.150258237         1.031105328
     1.031105574         3.160777704         1.031105328
     1.031105574         7.150270127         5.155521109
     5.155519634         3.160778179         5.155521109
     5.155519634         1.166021267         7.217728570
     1.031105574         1.166025309         3.093312174
     1.031105574         5.155528790         7.217728570
     5.155519634         5.155520705         3.093312174
     3.093311436         5.155523559         1.031105328
     7.217728078         1.166023050         1.031105328
     7.217728078         5.155511669         5.155521109
     3.093311436         1.166028995         5.155521109
     7.217728078         5.155523559         1.031105328
     3.093311436         1.166023050         1.031105328
     3.093311436         5.155511669         5.155521109
     7.217728078         1.166028995         5.155521109
