Ba120 Ta120 N120 O240
1.0
       16.4976673126         0.0000000000         0.0000000000
        0.0000000000        23.9369106293         0.0000000000
        0.0000000000         3.9894855124        20.6220842238
   Ba   Ta    N    O
    8   27   18   36
Cartesian
     2.062208414         5.984219735         8.248833812
     6.186625242         5.984235645         4.124416906
     6.186625242         9.973712806         8.248833812
     2.062208414         9.973704818         4.124416906
     6.186625242         5.984219735         8.248833812
     2.062208414         5.984235645         4.124416906
     2.062208414         9.973712806         8.248833812
     6.186625242         9.973704818         4.124416906
     4.124416828         7.978970414        10.311042112
     0.000000000         3.989485294         2.062208453
     0.000000000         7.978962485         6.186625513
     0.000000000        11.968463841        10.311042112
     8.248833656         3.989485294         2.062208453
     8.248833656         7.978962485         6.186625513
     8.248833656        11.968463841        10.311042112
     4.124416828         7.978978008         2.062208453
     4.124416828        11.968455199         6.186625513
     0.000000000        11.968447181         2.062208453
     8.248833656        11.968447181         2.062208453
     0.000000000         3.989477343        10.311042112
     8.248833656         3.989477343        10.311042112
     4.124416828         3.989493312         6.186625513
     4.124416828        11.968463841        10.311042112
     0.000000000         7.978978008         2.062208453
     0.000000000        11.968455199         6.186625513
     8.248833656         7.978978008         2.062208453
     8.248833656        11.968455199         6.186625513
     4.124416828        11.968447181         2.062208453
     4.124416828         3.989477343        10.311042112
     0.000000000         3.989493312         6.186625513
     0.000000000         7.978970414        10.311042112
     8.248833656         3.989493312         6.186625513
     8.248833656         7.978970414        10.311042112
     4.124416828         3.989485294         2.062208453
     4.124416828         7.978962485         6.186625513
     4.124416828         5.984235827        10.311042112
     0.000000000         5.984227898         6.186625513
     0.000000000         9.973704643        10.311042112
     8.248833656         5.984227898         6.186625513
     8.248833656         9.973704643        10.311042112
     4.124416828         5.984219881         2.062208453
     4.124416828         9.973720969         6.186625513
     0.000000000         9.973712952         2.062208453
     8.248833656         9.973712952         2.062208453
     4.124416828         7.978978577         8.248833812
     0.000000000         7.978970588         4.124416906
     0.000000000        11.968447749         8.248833812
     8.248833656         7.978970588         4.124416906
     8.248833656        11.968447749         8.248833812
     4.124416828        11.968463303         4.124416906
     0.000000000         3.989485327         8.248833812
     8.248833656         3.989485327         8.248833812
     4.124416828         3.989477161         4.124416906
     4.124416828         9.973704643        10.311042112
     0.000000000         5.984219881         2.062208453
     0.000000000         9.973720969         6.186625513
     8.248833656         5.984219881         2.062208453
     8.248833656         9.973720969         6.186625513
     4.124416828         9.973712952         2.062208453
     0.000000000         5.984235827        10.311042112
     8.248833656         5.984235827        10.311042112
     4.124416828         5.984227898         6.186625513
     4.124416828         3.989485327         8.248833812
     0.000000000         3.989477161         4.124416906
     0.000000000         7.978978577         8.248833812
     8.248833656         3.989477161         4.124416906
     8.248833656         7.978978577         8.248833812
     4.124416828         7.978970588         4.124416906
     4.124416828        11.968447749         8.248833812
     0.000000000        11.968463303         4.124416906
     8.248833656        11.968463303         4.124416906
     2.062208414         7.978970414        10.311042112
     6.186625242         3.989485294         2.062208453
     6.186625242         7.978962485         6.186625513
     6.186625242        11.968463841        10.311042112
     2.062208414         7.978978008         2.062208453
     2.062208414        11.968455199         6.186625513
     6.186625242        11.968447181         2.062208453
     6.186625242         3.989477343        10.311042112
     2.062208414         3.989493312         6.186625513
     6.186625242         7.978970414        10.311042112
     2.062208414         3.989485294         2.062208453
     2.062208414         7.978962485         6.186625513
     2.062208414        11.968463841        10.311042112
     6.186625242         7.978978008         2.062208453
     6.186625242        11.968455199         6.186625513
     2.062208414        11.968447181         2.062208453
     2.062208414         3.989477343        10.311042112
     6.186625242         3.989493312         6.186625513
