Ba120 Ta120 N120 O240
1.0
       8.24883      0.0000000000         0.0000000000
        0.0000000000        7.97899         0.0000000000
        0.0000000000         0.0000000000       8.24883 
   Ba   Ta    N    O
    8   27   18   36
Cartesian
     3.093312058         3.160770245         7.217729774
     7.217729159         3.160786224         3.093312673
     7.217729159         7.150262983         7.217729774
     3.093312058         7.150255608         3.093312673
     7.217729159         3.160770245         7.217729774
     3.093312058         3.160786224         3.093312673
     3.093312058         7.150262983         7.217729774
     7.217729159         7.150255608         3.093312673
     5.155520916         5.155520301         9.279937403
     1.031104122         1.166035553         1.031103507
     1.031104122         5.155512312         5.155522145
     1.031104122         9.145014269         9.279937403
     9.279937403         1.166035553         1.031103507
     9.279937403         5.155512312         5.155522145
     9.279937403         9.145014269         9.279937403
     5.155520916         5.155528291         1.031103507
     5.155520916         9.145005664         5.155522145
     1.031104122         9.144997060         1.031103507
     9.279937403         9.144997060         1.031103507
     1.031104122         1.166027256         9.279937403
     9.279937403         1.166027256         9.279937403
     5.155520916         1.166043235         5.155522145
     5.155520916         9.145014269         9.279937403
     1.031104122         5.155528291         1.031103507
     1.031104122         9.145005664         5.155522145
     9.279937403         5.155528291         1.031103507
     9.279937403         9.145005664         5.155522145
     5.155520916         9.144997060         1.031103507
     5.155520916         1.166027256         9.279937403
     1.031104122         1.166043235         5.155522145
     1.031104122         5.155520301         9.279937403
     9.279937403         1.166043235         5.155522145
     9.279937403         5.155520301         9.279937403
     5.155520916         1.166035553         1.031103507
     5.155520916         5.155512312         5.155522145
     5.155520916         3.160786224         9.279937403
     1.031104122         3.160778542         5.155522145
     1.031104122         7.150255608         9.279937403
     9.279937403         3.160778542         5.155522145
     9.279937403         7.150255608         9.279937403
     5.155520916         3.160770245         1.031103507
     5.155520916         7.150270973         5.155522145
     1.031104122         7.150262983         1.031103507
     9.279937403         7.150262983         1.031103507
     5.155520916         5.155529520         7.217729774
     1.031104122         5.155521531         3.093312673
     1.031104122         9.144997675         7.217729774
     9.279937403         5.155521531         3.093312673
     9.279937403         9.144997675         7.217729774
     5.155520916         9.145013654         3.093312673
     1.031104122         1.166035553         7.217729774
     9.279937403         1.166035553         7.217729774
     5.155520916         1.166027256         3.093312673
     5.155520916         7.150255608         9.279937403
     1.031104122         3.160770245         1.031103507
     1.031104122         7.150270973         5.155522145
     9.279937403         3.160770245         1.031103507
     9.279937403         7.150270973         5.155522145
     5.155520916         7.150262983         1.031103507
     1.031104122         3.160786224         9.279937403
     9.279937403         3.160786224         9.279937403
     5.155520916         3.160778542         5.155522145
     5.155520916         1.166035553         7.217729774
     1.031104122         1.166027256         3.093312673
     1.031104122         5.155529520         7.217729774
     9.279937403         1.166027256         3.093312673
     9.279937403         5.155529520         7.217729774
     5.155520916         5.155521531         3.093312673
     5.155520916         9.144997675         7.217729774
     1.031104122         9.145013654         3.093312673
     9.279937403         9.145013654         3.093312673
     3.093312058         5.155520301         9.279937403
     7.217729159         1.166035553         1.031103507
     7.217729159         5.155512312         5.155522145
     7.217729159         9.145014269         9.279937403
     3.093312058         5.155528291         1.031103507
     3.093312058         9.145005664         5.155522145
     7.217729159         9.144997060         1.031103507
     7.217729159         1.166027256         9.279937403
     3.093312058         1.166043235         5.155522145
     7.217729159         5.155520301         9.279937403
     3.093312058         1.166035553         1.031103507
     3.093312058         5.155512312         5.155522145
     3.093312058         9.145014269         9.279937403
     7.217729159         5.155528291         1.031103507
     7.217729159         9.145005664         5.155522145
     3.093312058         9.144997060         1.031103507
     3.093312058         1.166027256         9.279937403
     7.217729159         1.166043235         5.155522145
